! Created with skrf 1.10.0 (http://scikit-rf.org).
# Hz S RI R 50.0 
!freq ReS11 ImS11
!
4000000000.0 0.00111392792314291 -0.00015826831804588437
4000100000.0 0.0009971556719392538 -0.0005804378306493163
4000200000.0 0.0009387530153617263 -0.0005704538198187947
4000300000.0 0.0007516356417909265 -0.00027862642309628427
4000400000.0 0.0010139470687136054 -0.0005767408874817193
4000500000.0 0.000905713764950633 -0.0007962039089761674
4000600000.0 0.0009226094116456807 -0.0003407626645639539
4000700000.0 0.0009410385973751545 -0.0004695713287219405
4000800000.0 0.001011599670164287 -0.0005748693947680295
4000900000.0 0.0005900684627704322 -0.0008227825746871531
4001000000.0 0.0005039307870902121 -0.0006970611284486949
4001100000.0 0.0004829543468076736 -0.000949269044212997
4001200000.0 0.0005257976590655744 -0.0009697363711893559
4001300000.0 0.0007064223755151033 -0.0008778531337156892
4001400000.0 0.00040424810140393674 -0.0008152562659233809
4001500000.0 0.0003341630508657545 -0.0009515649871900678
4001600000.0 0.0003907070495188236 -0.000691218941938132
4001700000.0 0.00033493188675493 -0.0006798065733164549
4001800000.0 0.0002687104279175401 -0.0008219174342229962
4001900000.0 0.00028606364503502846 -0.0011022182879969478
4002000000.0 0.00019094577874056995 -0.0010281092254444957
4002100000.0 0.00023858885106164962 -0.00074402877362445
4002200000.0 0.00015078014985192567 -0.0011849858565256
4002300000.0 9.218924242304638e-05 -0.0011654342524707317
4002400000.0 3.0195416911737993e-05 -0.001197821693494916
4002500000.0 0.00018086243653669953 -0.000807902542874217
4002600000.0 -0.00014300002658274025 -0.0009358993847854435
4002700000.0 -3.47824243362993e-05 -0.0011515342630445957
4002800000.0 9.056680573849007e-05 -0.0011614778777584434
4002900000.0 -0.0002782465307973325 -0.0008408250869251788
4003000000.0 -0.0003211856819689274 -0.0010062209330499172
4003100000.0 -0.0004113834002055228 -0.000912581745069474
4003200000.0 -0.00024671346182003617 -0.0012484339531511068
4003300000.0 -0.00039066243334673345 -0.0008358359336853027
4003400000.0 -0.0004983174148947 -0.0009506137575954199
4003500000.0 -0.0005412609316408634 -0.000879757571965456
4003600000.0 -0.0005402890965342522 -0.0008065093425102532
4003700000.0 -0.0003303324047010392 -0.0008372605661861598
4003800000.0 -0.0003409725904930383 -0.0010558661306276917
4003900000.0 -0.0004529364814516157 -0.0006237555062398314
4004000000.0 -0.0006569027900695801 -0.0006746422150172293
4004100000.0 -0.000400492746848613 -0.0009223110391758382
4004200000.0 -0.000661953934468329 -0.0009399357950314879
4004300000.0 -0.0007471749559044838 -0.0005606734775938094
4004400000.0 -0.00047688401537016034 -0.0007944166427478194
4004500000.0 -0.0006619846099056304 -0.0004920143983326852
4004600000.0 -0.0007559908553957939 -0.0008882381371222436
4004700000.0 -0.00035451186704449356 -0.0006863224552944303
4004800000.0 -0.0006272035534493625 -0.0004743751778732985
4004900000.0 -0.001016117981635034 -0.00045607061474584043
4005000000.0 -0.0008970007766038179 -0.0007177929510362446
4005100000.0 -0.0008006457355804741 -0.000664898136164993
4005200000.0 -0.0007130075246095657 -0.00034871933166868985
4005300000.0 -0.0007644741563126445 -0.0005551222711801529
4005400000.0 -0.001162645174190402 -0.0003168186522088945
4005500000.0 -0.0011011650785803795 -0.0004521734663285315
4005600000.0 -0.0011573462979868054 -0.00012913027603644878
4005700000.0 -0.0009301655227318406 -0.0004806998767890036
4005800000.0 -0.0009684109827503562 -3.340021430631168e-05
4005900000.0 -0.0012007057666778564 -8.72178134159185e-06
4006000000.0 -0.0008412062888965011 0.00010124009713763371
4006100000.0 -0.0010458207689225674 -0.0002159164141630754
4006200000.0 -0.0008191317901946604 -3.3169933885801584e-05
4006300000.0 -0.0007989575387910008 3.0995590350357816e-05
4006400000.0 -0.0007688745972700417 0.00021048664348199964
4006500000.0 -0.0007907040417194366 0.00018317837384529412
4006600000.0 -0.0011376191396266222 0.00025901038316078484
4006700000.0 -0.0007426869124174118 0.00010180901881540194
4006800000.0 -0.0008445570128969848 0.0003411354264244437
4006900000.0 -0.0009737644577398896 0.00010593551269266754
4007000000.0 -0.0011487831361591816 0.0004324098990764469
4007100000.0 -0.000714337918907404 0.000386952655389905
4007200000.0 -0.0009913904359564185 0.0006578330649062991
4007300000.0 -0.0009047174826264381 0.000710804364643991
4007400000.0 -0.0007203241111710668 0.0002870708121918142
4007500000.0 -0.0009668509010225534 0.0005897002411074936
4007600000.0 -0.0007904781959950924 0.0007974030449986458
4007700000.0 -0.0007240758277475834 0.0007960249786265194
4007800000.0 -0.0008482850389555097 0.0009159109904430807
4007900000.0 -0.0005282338242977858 0.0008413798059336841
4008000000.0 -0.0006028223433531821 0.0005281504709273577
4008100000.0 -0.0007919486379250884 0.0008723737555555999
4008200000.0 -0.0007556334021501243 0.0009591146954335272
4008300000.0 -0.00046232278691604733 0.0009834376396611333
4008400000.0 -0.000376484589651227 0.0007215840159915388
4008500000.0 -0.0006530414684675634 0.000801575486548245
4008600000.0 -0.0002749101258814335 0.0008862599497660995
4008700000.0 -0.0005760618951171637 0.0008045824943110347
4008800000.0 -0.0002089009212795645 0.000908727350179106
4008900000.0 -0.00047560108941979706 0.0010821570176631212
4009000000.0 -0.00033145214547403157 0.0011572345392778516
4009100000.0 -5.555902680498548e-05 0.0008553197258152068
4009200000.0 -0.0003789211914408952 0.0009132520062848926
4009300000.0 -0.00028659540112130344 0.0011202683672308922
4009400000.0 -0.00018141345935873687 0.000852175522595644
4009500000.0 0.00011715153232216835 0.0010576739441603422
4009600000.0 -0.00018777647346723825 0.0011976208770647645
4009700000.0 -0.00015474521205760539 0.000965901359450072
4009800000.0 -0.00015374297800008208 0.0012184111401438713
4009900000.0 -0.00010059706983156502 0.0009850249625742435
4010000000.0 0.00032910745358094573 0.0011006597196683288
4010100000.0 0.00017071625916287303 0.0012695796322077513
4010200000.0 0.00015162596537265927 0.0012451260117813945
4010300000.0 0.0001388479140587151 0.0010257232934236526
4010400000.0 0.0004354586999397725 0.0007879181648604572
4010500000.0 0.0002263297064928338 0.001053509535267949
4010600000.0 0.0005332710570655763 0.0008049542084336281
4010700000.0 0.0004888347466476262 0.0010896236635744572
4010800000.0 0.0004707307671196759 0.0010172108886763453
4010900000.0 0.0007373476983048022 0.0007914751768112183
4011000000.0 0.0005984509480185807 0.0010973068419843912
4011100000.0 0.0007861742633394897 0.000945320469327271
4011200000.0 0.000871009542606771 0.0006762531702406704
4011300000.0 0.0006037945277057588 0.0006332725170068443
4011400000.0 0.0006103859632275999 0.0008532436331734061
4011500000.0 0.0008425127598457038 0.0005046983133070171
4011600000.0 0.0009126531658694148 0.0005127197946421802
4011700000.0 0.0006615342572331429 0.0006920082960277796
4011800000.0 0.001129662268795073 0.00047385445213876665
4011900000.0 0.001024395227432251 0.00041434349259361625
4012000000.0 0.0009744503768160939 0.00033818281372077763
4012100000.0 0.0008776878821663558 0.0006730049499310553
4012200000.0 0.0009476052364334464 0.00022423671907745302
4012300000.0 0.001185286557301879 0.0004508928395807743
4012400000.0 0.000982427503913641 0.0006181534845381975
4012500000.0 0.0011668900260701776 0.00015221054491121322
4012600000.0 0.0011577397817745805 0.00044354976853355765
4012700000.0 0.0010588973527774215 0.0003841256257146597
4012800000.0 0.001180602703243494 0.0003128071839455515
4012900000.0 0.0008829263970255852 0.0002141012519132346
4013000000.0 0.0010388114023953676 -0.00015492262900806963
4013100000.0 0.0011021408718079329 0.00016430849791504443
4013200000.0 0.0012923134490847588 -0.00010308714990969747
4013300000.0 0.0011693972628563643 9.531266550766304e-05
4013400000.0 0.0012005050666630268 -0.000344567175488919
4013500000.0 0.0011535502271726727 -2.067989157694683e-07
4013600000.0 0.0012781162513419986 -0.00036902292049489915
4013700000.0 0.0009489040821790695 -0.00016378490545321256
4013800000.0 0.0010857906891033053 -0.00019803058239631355
4013900000.0 0.0009493200923316181 -0.0002615813282318413
4014000000.0 0.0009958100272342563 -0.00024153615231625736
4014100000.0 0.0011317925527691841 -0.0006374510121531785
4014200000.0 0.0011775954626500607 -0.0006954723503440619
4014300000.0 0.0009798152605071664 -0.0007699274574406445
4014400000.0 0.000800731941126287 -0.0006746441358700395
4014500000.0 0.0007599586388096213 -0.0007164405542425811
4014600000.0 0.001091735321097076 -0.00056661810958758
4014700000.0 0.0008214997942559421 -0.0006594171281903982
4014800000.0 0.0009856951655820012 -0.0008075545774772763
4014900000.0 0.0010025675874203444 -0.0008214316912926733
4015000000.0 0.0005552233778871596 -0.0008543692529201508
4015100000.0 0.0009616541210561991 -0.0009322168189100921
4015200000.0 0.0008427387801930308 -0.001126669580116868
4015300000.0 0.0005033359047956765 -0.0012114063138142228
4015400000.0 0.0005089135374873877 -0.0011947766179218888
4015500000.0 0.00039747561095282435 -0.001129438285715878
4015600000.0 0.0004596009384840727 -0.0008720273617655039
4015700000.0 0.0006007548654451966 -0.0008044807473197579
4015800000.0 0.00032578574609942734 -0.0009996761800721288
4015900000.0 0.0001998268999159336 -0.0013129654107615352
4016000000.0 0.000536818231921643 -0.0011677476577460766
4016100000.0 0.00015168412937782705 -0.0013030002592131495
4016200000.0 0.00014027030556462705 -0.0014016281347721815
4016300000.0 0.0003555813163984567 -0.0012156388256698847
4016400000.0 5.326711470843293e-05 -0.0010415324941277504
4016500000.0 -7.645972800673917e-05 -0.0010767887579277158
4016600000.0 -0.00012062304449500516 -0.0014228359796106815
4016700000.0 -0.0001936001208378002 -0.0015069354558363557
4016800000.0 8.11591962701641e-06 -0.0013694892404600978
4016900000.0 -0.0002917814417742193 -0.0010826820507645607
4017000000.0 -9.191066055791453e-05 -0.0014430413721129298
4017100000.0 -0.0004073369491379708 -0.0014478049706667662
4017200000.0 -0.00015586741210427135 -0.0013319536810740829
4017300000.0 -0.0005418375949375331 -0.00101765978615731
4017400000.0 -0.00028763440786860883 -0.001370845129713416
4017500000.0 -0.0007175531936809421 -0.0011490682372823358
4017600000.0 -0.0007144800038076937 -0.0013561794767156243
4017700000.0 -0.0004525422118604183 -0.0011670205276459455
4017800000.0 -0.000618852733168751 -0.0012788876192644238
4017900000.0 -0.0007205793517641723 -0.0008845973643474281
4018000000.0 -0.0009226570837199688 -0.0008374638273380697
4018100000.0 -0.0006582069327123463 -0.0010998628567904234
4018200000.0 -0.0008266338845714927 -0.0008591228979639709
4018300000.0 -0.0007596471114084125 -0.0010471984278410673
4018400000.0 -0.0012235378380864859 -0.001112776342779398
4018500000.0 -0.0009094951092265546 -0.0008788653067313135
4018600000.0 -0.0013152825413271785 -0.0006518532754853368
4018700000.0 -0.001171257346868515 -0.0006073853583075106
4018800000.0 -0.0012637973995879292 -0.0008886444848030806
4018900000.0 -0.0011194036342203617 -0.0008268197998404503
4019000000.0 -0.0011272348929196596 -0.0008121542050503194
4019100000.0 -0.001092279446311295 -0.0005537667311728001
4019200000.0 -0.0013010840630158782 -0.000646202708594501
4019300000.0 -0.0012548312079161406 -0.0002439591335132718
4019400000.0 -0.0013127225684002042 -0.000544580165296793
4019500000.0 -0.001284503610804677 -0.0003756772493943572
4019600000.0 -0.0016089315759018064 -0.0002777439949568361
4019700000.0 -0.001435006968677044 4.0881397580960765e-05
4019800000.0 -0.0013791464734822512 2.6706602511694655e-05
4019900000.0 -0.0017097183736041188 -8.05345771368593e-05
4020000000.0 -0.001288998406380415 7.357281720032915e-05
4020100000.0 -0.001461639767512679 0.00034250644966959953
4020200000.0 -0.0013044208753854036 0.00020151898206677288
4020300000.0 -0.0013212800258770585 0.00033093526144512
4020400000.0 -0.0017085581785067916 0.0003524304192978889
4020500000.0 -0.0016707803588360548 0.00045108876656740904
4020600000.0 -0.0013302525039762259 0.00038727791979908943
4020700000.0 -0.0015447487821802497 0.0004001940251328051
4020800000.0 -0.001564282109029591 0.0008879978558979928
4020900000.0 -0.001595316338352859 0.0007888035615906119
4021000000.0 -0.0012946504866704345 0.0006069697556085885
4021100000.0 -0.001327161444351077 0.0006653391756117344
4021200000.0 -0.0014594742096960545 0.0007633799687027931
4021300000.0 -0.0013454087311401963 0.0008206600905396044
4021400000.0 -0.001371206366457045 0.0009155217558145523
4021500000.0 -0.0012608242686837912 0.0009399617556482553
4021600000.0 -0.0009713689796626568 0.0012527670478448272
4021700000.0 -0.0009401888237334788 0.001348651945590973
4021800000.0 -0.0011782693909481168 0.0011938571697100997
4021900000.0 -0.000997404451481998 0.0011731768026947975
4022000000.0 -0.0009837853722274303 0.0017262013861909509
4022100000.0 -0.0007985816919244826 0.0016600877279415727
4022200000.0 -0.0007466736133210361 0.001394533202983439
4022300000.0 -0.0008558672270737588 0.0014790984569117427
4022400000.0 -0.0007635804358869791 0.0014573705848306417
4022500000.0 -0.0007331426022574306 0.0016850039828568697
4022600000.0 -0.000651725975330919 0.001771040027961135
4022700000.0 -0.0002735134621616453 0.001551518333144486
4022800000.0 -0.00011070272012148052 0.001736312173306942
4022900000.0 -0.0004101899976376444 0.0017582150176167488
4023000000.0 -0.00014045671559870243 0.0016241034027189016
4023100000.0 -4.300487489672378e-05 0.0016391519457101822
4023200000.0 -0.00014600563736166805 0.0018773771589621902
4023300000.0 2.7310054065310396e-05 0.0020008208230137825
4023400000.0 0.00045258612954057753 0.0019986529368907213
4023500000.0 0.00020617927657440305 0.002015466568991542
4023600000.0 0.0003300548705738038 0.0016719516133889556
4023700000.0 0.0003853265370707959 0.0016737153055146337
4023800000.0 0.0007789480150677264 0.0019179537193849683
4023900000.0 0.0008806085679680109 0.0016868425300344825
4024000000.0 0.0007818098529241979 0.001915506785735488
4024100000.0 0.000982048106379807 0.001968786818906665
4024200000.0 0.0010484920348972082 0.0019042275380343199
4024300000.0 0.0008787314291112125 0.0017051758477464318
4024400000.0 0.001072127721272409 0.00147572485730052
4024500000.0 0.0014856423949822783 0.0016851723194122314
4024600000.0 0.0013682632707059383 0.0012659679632633924
4024700000.0 0.001343979500234127 0.0015971051761880517
4024800000.0 0.001499937498010695 0.001565194921568036
4024900000.0 0.0016202509868890047 0.0014701163163408637
4025000000.0 0.0014696030411869287 0.0011801640503108501
4025100000.0 0.0015427740290760994 0.0012351006735116243
4025200000.0 0.0016432985430583358 0.0009546851506456733
4025300000.0 0.0017600147984921932 0.0011947479797527194
4025400000.0 0.0017176574328914285 0.0009652935550548136
4025500000.0 0.0018438623519614339 0.0009460430592298508
4025600000.0 0.0021421208512037992 0.0005471204058267176
4025700000.0 0.002142509678378701 0.0007833496783860028
4025800000.0 0.0021321913227438927 0.00028051648405380547
4025900000.0 0.0021506876219063997 0.0002460402902215719
4026000000.0 0.0024347330909222364 0.00019174101180396974
4026100000.0 0.00237255054526031 5.589416468865238e-05
4026200000.0 0.0023904889822006226 2.0039999071741477e-05
4026300000.0 0.002381044439971447 8.057479135459289e-05
4026400000.0 0.0023812544532120228 -5.060249168309383e-05
4026500000.0 0.0022629459854215384 -6.819646660005674e-05
4026600000.0 0.002273737685754895 -0.0005894310888834298
4026700000.0 0.0019755084067583084 -0.00024182684137485921
4026800000.0 0.002269577933475375 -0.0008742438512854278
4026900000.0 0.0019408814841881394 -0.000852665223646909
4027000000.0 0.0023394047748297453 -0.0008401084342040122
4027100000.0 0.0022939792834222317 -0.0010045297676697373
4027200000.0 0.0021579561289399862 -0.0009655519970692694
4027300000.0 0.002110360888764262 -0.0012852317886427045
4027400000.0 0.0018852404318749905 -0.0011631256202235818
4027500000.0 0.00183766707777977 -0.001639108406379819
4027600000.0 0.0018085491610690951 -0.0017694398993626237
4027700000.0 0.001490604830905795 -0.0015943496255204082
4027800000.0 0.0014754162402823567 -0.0016544085228815675
4027900000.0 0.0015255631878972054 -0.0017286405200138688
4028000000.0 0.0016358885914087296 -0.00202914047986269
4028100000.0 0.00132790079806 -0.0019307981710880995
4028200000.0 0.0011596649419516325 -0.001999226165935397
4028300000.0 0.0010397045407444239 -0.0023562624119222164
4028400000.0 0.0007320190779864788 -0.0018471746006980538
4028500000.0 0.0007627535960637033 -0.0024263763334602118
4028600000.0 0.0009175035520456731 -0.002266600960865617
4028700000.0 0.0008576810942031443 -0.0022974899038672447
4028800000.0 0.00042640947503969073 -0.002667660592123866
4028900000.0 0.00017911786562763155 -0.0025769411586225033
4029000000.0 -1.398803078700439e-06 -0.002510279417037964
4029100000.0 0.0002081544662360102 -0.0028000737074762583
4029200000.0 -0.0001618219685042277 -0.0027643446810543537
4029300000.0 -0.00011747221287805587 -0.0024472451768815517
4029400000.0 -5.8261528465664014e-05 -0.002608116716146469
4029500000.0 -0.0006680687656626105 -0.0024861812125891447
4029600000.0 -0.0005500210681930184 -0.002399553544819355
4029700000.0 -0.0008234116830863059 -0.0027399188838899136
4029800000.0 -0.0007011572597548366 -0.002568615600466728
4029900000.0 -0.0012563300551846623 -0.0024581975303590298
4030000000.0 -0.0012064521433785558 -0.002211758168414235
4030100000.0 -0.0012560822069644928 -0.001790751819498837
4030200000.0 -0.0016209181630983949 -0.002170136896893382
4030300000.0 -0.0016233045607805252 -0.002081282204017043
4030400000.0 -0.0017631436930969357 -0.002338526537641883
4030500000.0 -0.0016167938010767102 -0.002080917824059725
4030600000.0 -0.0017710065003484488 -0.0020719575695693493
4030700000.0 -0.002224744064733386 -0.0020034806802868843
4030800000.0 -0.002057034056633711 -0.0019370473455637693
4030900000.0 -0.002284592017531395 -0.0017790442798286676
4031000000.0 -0.0024111720267683268 -0.0017076536314561963
4031100000.0 -0.0024713415186852217 -0.0014715192373842
4031200000.0 -0.0023820120841264725 -0.001375666819512844
4031300000.0 -0.0024220431223511696 -0.0012367675080895424
4031400000.0 -0.002577571664005518 -0.0007503859233111143
4031500000.0 -0.002626562723889947 -0.0005910377367399633
4031600000.0 -0.0028197693172842264 -0.0004970707232132554
4031700000.0 -0.002676969626918435 -0.0009465216426178813
4031800000.0 -0.002711124252527952 -0.0005370675935409963
4031900000.0 -0.0026408240664750338 -0.00021677539916709065
4032000000.0 -0.003086904063820839 -2.973556001961697e-05
4032100000.0 -0.003086147829890251 9.722864342620596e-05
4032200000.0 -0.002909790026023984 3.287267827545293e-05
4032300000.0 -0.002995946677401662 0.00043069696403108537
4032400000.0 -0.0029822741635143757 0.000453340559033677
4032500000.0 -0.0029513477347791195 0.0006467718631029129
4032600000.0 -0.0027708029374480247 0.001088675344362855
4032700000.0 -0.002808204386383295 0.0011584239546209574
4032800000.0 -0.0026644363533705473 0.0009943657787516713
4032900000.0 -0.0027398273814469576 0.0013780215522274375
4033000000.0 -0.0026828115805983543 0.001300483476370573
4033100000.0 -0.0024418802931904793 0.001768172369338572
4033200000.0 -0.0025171039160341024 0.0015647453255951405
4033300000.0 -0.0023306170478463173 0.001752469688653946
4033400000.0 -0.00215474097058177 0.0021252573933452368
4033500000.0 -0.0018164180219173431 0.0021440433338284492
4033600000.0 -0.0020686762873083353 0.0020828419364988804
4033700000.0 -0.0017806292744353414 0.0021407732274383307
4033800000.0 -0.0017937255324795842 0.002308211987838149
4033900000.0 -0.0017286940710619092 0.002490163082256913
4034000000.0 -0.001530590234324336 0.0025540401693433523
4034100000.0 -0.0014377878978848457 0.002700831973925233
4034200000.0 -0.0009125770884566009 0.0025658723898231983
4034300000.0 -0.0007318625575862825 0.002655596239492297
4034400000.0 -0.0005454594502225518 0.002929452806711197
4034500000.0 -0.0007207429152913392 0.0029963627457618713
4034600000.0 -0.0003258218348491937 0.002925622509792447
4034700000.0 -0.00017823438975028694 0.002798028290271759
4034800000.0 -0.0004305114853195846 0.002871809294447303
4034900000.0 3.743133129319176e-05 0.002625108463689685
4035000000.0 5.6943954405141994e-05 0.0028897507581859827
4035100000.0 0.00012541847536340356 0.0028475355356931686
4035200000.0 0.00032539633684791625 0.002983410842716694
4035300000.0 0.00043937191367149353 0.0029370186384767294
4035400000.0 0.000831088051199913 0.0025676684454083443
4035500000.0 0.000897710386198014 0.002564910566434264
4035600000.0 0.0009421955910511315 0.00285679055377841
4035700000.0 0.001156870392151177 0.0024136900901794434
4035800000.0 0.0014194374671205878 0.0023820213973522186
4035900000.0 0.0016819083830341697 0.0024572880938649178
4036000000.0 0.0014638063730672002 0.0023096580989658833
4036100000.0 0.0017040603561326861 0.0024636543821543455
4036200000.0 0.001977904699742794 0.0022999425418674946
4036300000.0 0.001774663687683642 0.0022497549653053284
4036400000.0 0.0018738149665296078 0.0019939569756388664
4036500000.0 0.0019877201411873102 0.001763117965310812
4036600000.0 0.002363146049901843 0.0018249594140797853
4036700000.0 0.0024114924017339945 0.001868793391622603
4036800000.0 0.002169746905565262 0.0015572229167446494
4036900000.0 0.0023542477283626795 0.001577825634740293
4037000000.0 0.0023872386664152145 0.0010963745880872011
4037100000.0 0.00244637462310493 0.0010289257625117898
4037200000.0 0.002835529623553157 0.000900343875400722
4037300000.0 0.0026657921262085438 0.0010473403381183743
4037400000.0 0.002859740750864148 0.0005184501642361283
4037500000.0 0.0026071439497172832 0.0005156013648957014
4037600000.0 0.0026496106293052435 0.00037398445419967175
4037700000.0 0.002741903066635132 0.0005627867067232728
4037800000.0 0.002861824119463563 0.00025441861362196505
4037900000.0 0.0027344513218849897 0.00015619756595697254
4038000000.0 0.0029128878377377987 -0.0004385512147564441
4038100000.0 0.0029155639931559563 -0.0001726230257190764
4038200000.0 0.002893014345318079 -0.0006494852714240551
4038300000.0 0.002976201707497239 -0.0006133940769359469
4038400000.0 0.0027089680079370737 -0.0005579227581620216
4038500000.0 0.0024540077429264784 -0.0008952247444540262
4038600000.0 0.0024339875672012568 -0.0009693442843854427
4038700000.0 0.0026313322596251965 -0.0013862582854926586
4038800000.0 0.0027110471855849028 -0.0012746338034048676
4038900000.0 0.0025511563289910555 -0.0015893555246293545
4039000000.0 0.0024577875155955553 -0.0017750962870195508
4039100000.0 0.00247853621840477 -0.0017113188514485955
4039200000.0 0.0021162398625165224 -0.0020252056419849396
4039300000.0 0.0019658051896840334 -0.0017812522128224373
4039400000.0 0.0019849753007292747 -0.0022630635648965836
4039500000.0 0.0018007067264989018 -0.0020025447010993958
4039600000.0 0.0018873936496675014 -0.0020143117289990187
4039700000.0 0.0016825099010020494 -0.0021244522649794817
4039800000.0 0.0013856763252988458 -0.0025481495540589094
4039900000.0 0.0016338091809302568 -0.0025495977606624365
4040000000.0 0.001326543977484107 -0.0027354396879673004
4040100000.0 0.001286179292947054 -0.0024578487500548363
4040200000.0 0.0009603815851733088 -0.00285298191010952
4040300000.0 0.0008862475515343249 -0.0024872655048966408
4040400000.0 0.0009330371976830065 -0.0027795496862381697
4040500000.0 0.0005985928000882268 -0.002949985908344388
4040600000.0 0.0003598365292418748 -0.0029859368223696947
4040700000.0 1.0088395356433466e-05 -0.0028335091192275286
4040800000.0 0.0003409399650990963 -0.0029245982877910137
4040900000.0 -0.00022874059504829347 -0.0029340777546167374
4041000000.0 -0.00030594627605751157 -0.0027198661118745804
4041100000.0 -0.0005915972287766635 -0.0029878236819058657
4041200000.0 -0.0006450050277635455 -0.002760802861303091
4041300000.0 -0.00043081320472992957 -0.002792737679556012
4041400000.0 -0.0009968549711629748 -0.002787127159535885
4041500000.0 -0.0007032313733361661 -0.0027705670800060034
4041600000.0 -0.0008426377316936851 -0.0025889771059155464
4041700000.0 -0.0013932011788710952 -0.0024619719479233027
4041800000.0 -0.0014665273483842611 -0.002623931271955371
4041900000.0 -0.0012608219403773546 -0.0024717317428439856
4042000000.0 -0.0018003542209044099 -0.0023781454656273127
4042100000.0 -0.001885435776785016 -0.002290321746841073
4042200000.0 -0.0017142834840342402 -0.0023528593592345715
4042300000.0 -0.0017752523999661207 -0.002293634694069624
4042400000.0 -0.0018926950870081782 -0.0019002214539796114
4042500000.0 -0.0019463025964796543 -0.0019707984756678343
4042600000.0 -0.0021171041298657656 -0.001953153870999813
4042700000.0 -0.001992176054045558 -0.0018302012467756867
4042800000.0 -0.0026033001486212015 -0.0017139771953225136
4042900000.0 -0.002386571140959859 -0.0012515264097601175
4043000000.0 -0.0023655991535633802 -0.001258526579476893
4043100000.0 -0.0028943615034222603 -0.0012548136292025447
4043200000.0 -0.0025223197881132364 -0.0011079589603468776
4043300000.0 -0.0029052547179162502 -0.0006255031330510974
4043400000.0 -0.002642715582624078 -0.0006173377623781562
4043500000.0 -0.003097502514719963 -0.000550515134818852
4043600000.0 -0.003092482453212142 -0.0005148641066625714
4043700000.0 -0.0029858676716685295 4.834224455407821e-06
4043800000.0 -0.0027834908105432987 -6.457557174144313e-05
4043900000.0 -0.002942778170108795 -0.00017279871099162847
4044000000.0 -0.002883582841604948 4.480014104046859e-05
4044100000.0 -0.0028093596920371056 0.0002316075115231797
4044200000.0 -0.002922813408076763 0.00032587029272690415
4044300000.0 -0.002833882812410593 0.0005564872990362346
4044400000.0 -0.003092660568654537 0.000756904250010848
4044500000.0 -0.0029292081017047167 0.0009139095200225711
4044600000.0 -0.002834002487361431 0.0009787967428565025
4044700000.0 -0.0027523357421159744 0.001507453271187842
4044800000.0 -0.0027822633273899555 0.001388318371027708
4044900000.0 -0.0026344170328229666 0.0014392271405085921
4045000000.0 -0.0022560616489499807 0.0016628693556413054
4045100000.0 -0.0025717588141560555 0.0017913136398419738
4045200000.0 -0.0020902142859995365 0.0020488458685576916
4045300000.0 -0.0023191424552351236 0.0022622188553214073
4045400000.0 -0.0017650434747338295 0.002232370665296912
4045500000.0 -0.002074026968330145 0.002289425116032362
4045600000.0 -0.0016078182961791754 0.0023662683088332415
4045700000.0 -0.0016754186945036054 0.0023817766923457384
4045800000.0 -0.0014779241755604744 0.002888368209823966
4045900000.0 -0.0014893906190991402 0.0026446841657161713
4046000000.0 -0.001299676252529025 0.002662220038473606
4046100000.0 -0.001186395762488246 0.0029532446060329676
4046200000.0 -0.0007644333527423441 0.0028023074846714735
4046300000.0 -0.0005246866494417191 0.0028980730567127466
4046400000.0 -0.0006396608077920973 0.0028954572044312954
4046500000.0 -0.00017236152780242264 0.002970103407278657
4046600000.0 -0.00017406967526767403 0.002851772354915738
4046700000.0 -0.00010414578719064593 0.0029480918310582638
4046800000.0 0.00033417774830013514 0.0029450601432472467
4046900000.0 0.00019217535736970603 0.0030712170992046595
4047000000.0 0.0006926225032657385 0.0031905327923595905
4047100000.0 0.0006273302133195102 0.0032464901451021433
4047200000.0 0.0010836563305929303 0.002900891238823533
4047300000.0 0.000983802485279739 0.0027665456291288137
4047400000.0 0.0011754368897527456 0.0030776376370340586
4047500000.0 0.0012747428845614195 0.0029793812427669764
4047600000.0 0.0016706143505871296 0.0024946932680904865
4047700000.0 0.0018307551508769393 0.0024804603308439255
4047800000.0 0.0018460801802575588 0.0027596973814070225
4047900000.0 0.002231305232271552 0.0024322783574461937
4048000000.0 0.002073361072689295 0.00210851663723588
4048100000.0 0.0021745660342276096 0.002034492790699005
4048200000.0 0.002308566588908434 0.0021688085980713367
4048300000.0 0.002608699956908822 0.001635882188566029
4048400000.0 0.002735339105129242 0.0018757578218355775
4048500000.0 0.0028079012408852577 0.0013339995639398694
4048600000.0 0.002880961401388049 0.0014992615906521678
4048700000.0 0.0026215771213173866 0.0013975166948512197
4048800000.0 0.0031330606434494257 0.001152314362116158
4048900000.0 0.0032190412748605013 0.0009030015207827091
4049000000.0 0.00316878710873425 0.0005300705670379102
4049100000.0 0.002873952966183424 0.0005110875936225057
4049200000.0 0.003202314954251051 0.00040899403393268585
4049300000.0 0.0029469879809767008 -0.00016472871357109398
4049400000.0 0.0028411969542503357 -3.376659515197389e-05
4049500000.0 0.002985685132443905 -0.00044532024185173213
4049600000.0 0.0028313796501606703 -0.0004838852328248322
4049700000.0 0.003162742592394352 -0.00047345730126835406
4049800000.0 0.0028753874357789755 -0.0006371508352458477
4049900000.0 0.002625116379931569 -0.0008388570277020335
4050000000.0 0.002520310692489147 -0.0010769469663500786
4050100000.0 0.0027808889281004667 -0.0011196347186341882
4050200000.0 0.0027654594741761684 -0.001428540563210845
4050300000.0 0.002469305880367756 -0.0014999050181359053
4050400000.0 0.002402561018243432 -0.0015151109546422958
4050500000.0 0.0024195623118430376 -0.0019373152172192931
4050600000.0 0.002209066180512309 -0.0018229978159070015
4050700000.0 0.001714225742034614 -0.002045492408797145
4050800000.0 0.0016340733272954822 -0.0020872277673333883
4050900000.0 0.0019260073313489556 -0.002229249570518732
4051000000.0 0.0013319901190698147 -0.0023395002353936434
4051100000.0 0.0011785939568653703 -0.002490435494109988
4051200000.0 0.0013891586568206549 -0.002444144571200013
4051300000.0 0.001068526180461049 -0.002337195910513401
4051400000.0 0.0006801641429774463 -0.0027736318297684193
4051500000.0 0.0005960901617072523 -0.002782318042591214
4051600000.0 0.00040741407428868115 -0.0025293161161243916
4051700000.0 0.00038405455416068435 -0.002411813475191593
4051800000.0 0.00012946150673087686 -0.0025400298181921244
4051900000.0 0.0003026528866030276 -0.00254527828656137
4052000000.0 -0.0003022956370841712 -0.002623893553391099
4052100000.0 -0.00024218118051066995 -0.002866191789507866
4052200000.0 -0.000156264184624888 -0.0026874025352299213
4052300000.0 -0.00046634062891826034 -0.002644206630066037
4052400000.0 -0.0007857211166992784 -0.0022990533616393805
4052500000.0 -0.0006097428849898279 -0.0024957198183983564
4052600000.0 -0.000797828019130975 -0.0024791001342236996
4052700000.0 -0.0010395743884146214 -0.0023306102957576513
4052800000.0 -0.0012021725997328758 -0.0018801321275532246
4052900000.0 -0.001152585493400693 -0.0018300109077244997
4053000000.0 -0.0014306659577414393 -0.0020944250281900167
4053100000.0 -0.001337426365353167 -0.0016715588280931115
4053200000.0 -0.0013220731634646654 -0.001756174024194479
4053300000.0 -0.0013640669640153646 -0.0016151926247403026
4053400000.0 -0.0018537051510065794 -0.001611404586583376
4053500000.0 -0.0016351499361917377 -0.0016437236918136477
4053600000.0 -0.0016589947044849396 -0.0014597955159842968
4053700000.0 -0.0018701112130656838 -0.000902119092643261
4053800000.0 -0.001784774474799633 -0.0008474178612232208
4053900000.0 -0.0020064632408320904 -0.0007892210269346833
4054000000.0 -0.0017179123824462295 -0.0009750465396791697
4054100000.0 -0.0018035167595371604 -0.0007958509959280491
4054200000.0 -0.0019686236046254635 -0.0003818785771727562
4054300000.0 -0.001910331193357706 -0.00022434927814174443
4054400000.0 -0.0017873705364763737 -0.0005019019590690732
4054500000.0 -0.002186145633459091 -0.0003405921452213079
4054600000.0 -0.0017735064029693604 -0.00027515547117218375
4054700000.0 -0.0021813351195305586 -0.00014805175305809826
4054800000.0 -0.0018808620516210794 -0.00015209725825116038
4054900000.0 -0.002006489783525467 0.0003374216321390122
4055000000.0 -0.0016883346252143383 0.00013667045277543366
4055100000.0 -0.002004144247621298 0.00023092643823474646
4055200000.0 -0.0018980243476107717 0.0006109399255365133
4055300000.0 -0.0019744352903217077 0.00040685368003323674
4055400000.0 -0.0013988801511004567 0.0008740471093915403
4055500000.0 -0.0015131341060623527 0.0008833986357785761
4055600000.0 -0.001374311395920813 0.0007341995369642973
4055700000.0 -0.0013105601537972689 0.0008843709947541356
4055800000.0 -0.0012672414304688573 0.0009324611164629459
4055900000.0 -0.0011722096242010593 0.0009867200860753655
4056000000.0 -0.0015398539835587144 0.0008687582449056208
4056100000.0 -0.0013940572971478105 0.0012236713664606214
4056200000.0 -0.0011264561908319592 0.0009429639321751893
4056300000.0 -0.0012602215865626931 0.0010659501422196627
4056400000.0 -0.0010423714993521571 0.001346590113826096
4056500000.0 -0.0007407150696963072 0.0011401487281545997
4056600000.0 -0.0006419301498681307 0.0012035880936309695
4056700000.0 -0.0009725537966005504 0.0011656314600259066
4056800000.0 -0.0007234394433908165 0.0011441662209108472
4056900000.0 -0.00039518100675195456 0.0013489307602867484
4057000000.0 -0.0006924433982931077 0.0012284084223210812
4057100000.0 -0.00023524041171185672 0.0014824839308857918
4057200000.0 -0.0005468062590807676 0.0015988288214430213
4057300000.0 -0.00019230997713748366 0.0015570864779874682
4057400000.0 -0.0005012188339605927 0.0014557853573933244
4057500000.0 -2.4540033791708993e-06 0.0013199064414948225
4057600000.0 -4.0725659346207976e-05 0.0011569379130378366
4057700000.0 3.9527636545244604e-05 0.0011274719145148993
4057800000.0 0.00015315042401198298 0.001237922115251422
4057900000.0 0.0003121782501693815 0.001323159085586667
4058000000.0 -2.795625368889887e-05 0.0015408792532980442
4058100000.0 0.0001990033924812451 0.0014836980262771249
4058200000.0 0.00011530791380209848 0.0013850131072103977
4058300000.0 0.000557909079361707 0.0012618796899914742
4058400000.0 0.00019693603098858148 0.0011136570246890187
4058500000.0 0.000575727317482233 0.0009669717983342707
4058600000.0 0.0003831030335277319 0.0009178784675896168
4058700000.0 0.0009415568201802671 0.001128080184571445
4058800000.0 0.0004735304682981223 0.001232259557582438
4058900000.0 0.0007713238010182977 0.0011236629216000438
4059000000.0 0.0008067746530286968 0.0008241584291681647
4059100000.0 0.0009218518389388919 0.000897818710654974
4059200000.0 0.0004667619941756129 0.0009172259015031159
4059300000.0 0.0008171736262738705 0.0005632663960568607
4059400000.0 0.0007804612978361547 0.0009728893637657166
4059500000.0 0.0010130320442840457 0.0007455412414856255
4059600000.0 0.0010165785206481814 0.0008091875351965427
4059700000.0 0.0010806915815919638 0.0003118271997664124
4059800000.0 0.0009368974715471268 0.00045622314792126417
4059900000.0 0.001095914514735341 0.00039772732998244464
4060000000.0 0.0007610346656292677 0.0003114272840321064
4060100000.0 0.0010600759414955974 0.0006007820484228432
4060200000.0 0.0010950033320114017 0.0005627052742056549
4060300000.0 0.0008320458000525832 0.00011252035619691014
4060400000.0 0.0008010664605535567 0.00035196138196624815
4060500000.0 0.0008140781428664923 9.130677790381014e-05
4060600000.0 0.0009893428068608046 -7.032792927930132e-05
4060700000.0 0.0008543195435777307 0.00038963588303886354
4060800000.0 0.0008569735218770802 -3.6765235563507304e-05
4060900000.0 0.0006988410605117679 0.0001039070266415365
4061000000.0 0.0009258746285922825 0.00021108129294589162
4061100000.0 0.001139927189797163 -0.00013415583816822618
4061200000.0 0.0009719848167151213 0.00012133775453548878
4061300000.0 0.0006903839530423284 -6.422396108973771e-05
4061400000.0 0.0004422341880854219 0.00016199119272641838
4061500000.0 0.0008150202338583767 2.3481907192035578e-05
4061600000.0 0.0007638941751793027 -2.2412668840843253e-05
4061700000.0 0.0011096278904005885 -0.00036438266397453845
4061800000.0 0.0008704886422492564 -0.00011791020369855687
4061900000.0 0.0005561267607845366 -0.0003504498745314777
4062000000.0 0.0008473654161207378 -0.0001526420091977343
4062100000.0 0.0005992358201183379 -0.0006609482225030661
4062200000.0 0.00051986234029755 -0.000326503359246999
4062300000.0 0.0008163683814927936 -0.0002474141656421125
4062400000.0 0.0005607904749922454 -0.00022655667271465063
4062500000.0 0.0006234545144252479 -0.0002521052665542811
4062600000.0 0.0006037231651134789 -0.0007698340341448784
4062700000.0 0.00046406721230596304 -0.0002930124755948782
4062800000.0 0.0005685804062522948 -0.0007585506536997855
4062900000.0 0.0005374789470806718 -0.0003527716617099941
4063000000.0 0.0006151010747998953 -0.0007780304877087474
4063100000.0 -0.00015261623775586486 -0.0008397723431698978
4063200000.0 0.0002391772868577391 -0.0007185765425674617
4063300000.0 0.0005329539417289197 -0.0008289679535664618
4063400000.0 0.0001245675521204248 -0.0007124582771211863
4063500000.0 0.0005209207301959395 -0.0006402357248589396
4063600000.0 5.0210965127917007e-05 -0.0006343813729472458
4063700000.0 0.0004690913192462176 -0.0006680672522634268
4063800000.0 0.00014819522039033473 -0.0009169928962364793
4063900000.0 -2.4053639208432287e-05 -0.0008071057964116335
4064000000.0 0.0005017289076931775 -0.000603443302679807
4064100000.0 0.00024354711058549583 -0.000538739375770092
4064200000.0 6.848853081464767e-05 -0.00045612495159730315
4064300000.0 -9.930656960932538e-05 -0.00047431490384042263
4064400000.0 9.514128032606095e-05 -0.0004365148488432169
4064500000.0 -0.0001156107900897041 -0.0004534611070994288
4064600000.0 -3.4943182981805876e-05 -0.0009098940645344555
4064700000.0 -6.646083784289658e-05 -0.0012547408696264029
4064800000.0 0.00014059606473892927 -0.000678862095810473
4064900000.0 9.449182834941894e-05 -0.0006245680269785225
4065000000.0 -0.00022819507285021245 -0.0008739330805838108
4065100000.0 -0.000395382841816172 -0.0006839379202574492
4065200000.0 -0.00021444831509143114 -0.00034967492683790624
4065300000.0 -0.00020656011474784464 -0.00029599276604130864
4065400000.0 -0.0003613462031353265 -0.00028864361229352653
4065500000.0 -0.00039386432035826147 -0.0007822141633369029
4065600000.0 -0.0002845705603249371 -0.0002820632653310895
4065700000.0 -0.0005517349927686155 -0.0006519975140690804
4065800000.0 -0.00023574654187541455 -0.00028789968928322196
4065900000.0 -0.00043036649003624916 -0.00020733870042022318
4066000000.0 -0.00012262946984265 -0.0003901206946466118
4066100000.0 -0.0001997927756747231 -0.00032266773632727563
4066200000.0 -0.0001820063916966319 -0.0004708722699433565
4066300000.0 -0.00045328415581025183 -0.00017955093062482774
4066400000.0 -0.0002766513789538294 -0.0002020746178459376
4066500000.0 -0.0004676574026234448 -0.000575871963519603
4066600000.0 -0.0006390387425199151 -0.00044763769255951047
4066700000.0 -0.00046293644118122756 2.0841298464802094e-05
4066800000.0 -0.0006742989062331617 -0.00032037662458606064
4066900000.0 -0.0007455926388502121 -0.0002844805712811649
4067000000.0 -0.00020919965754728764 -0.0001839155884226784
4067100000.0 -0.0003569487889762968 1.7354586816509254e-06
4067200000.0 -0.00043238565558567643 4.714287570095621e-05
4067300000.0 -0.0004211807681713253 -0.0003593671426642686
4067400000.0 -0.0002457027730997652 -5.0805283535737544e-05
4067500000.0 -0.00043448247015476227 0.00010185137944063172
4067600000.0 -0.00033405539579689503 9.225762187270448e-05
4067700000.0 -0.00028742809081450105 -0.00013143738033249974
4067800000.0 -0.0003057792200706899 -1.3701849638891872e-05
4067900000.0 -0.00038591428892686963 0.00019355946278665215
4068000000.0 -0.000727216072846204 -0.00015926147170830518
4068100000.0 -0.00036322668893262744 0.00010453908907948062
4068200000.0 -0.0006972596747800708 -5.858572694705799e-05
4068300000.0 -0.00043268699664622545 0.0003284041886217892
4068400000.0 -0.0005567470798268914 0.0003134514845442027
4068500000.0 -0.000506617478094995 -0.00014075959916226566
4068600000.0 -0.00036621204344555736 -0.00014656048733741045
4068700000.0 -0.0005594042013399303 -5.265674917609431e-05
4068800000.0 -0.0005362372030504048 0.00034895740100182593
4068900000.0 -0.0004892505239695311 -7.390660903183743e-05
4069000000.0 -0.0003441876033321023 -2.3736311050015502e-07
4069100000.0 -0.000761555740609765 0.0005869055166840553
4069200000.0 -0.00048486836021766067 6.041197048034519e-05
4069300000.0 -0.0003679848159663379 5.726051313104108e-05
4069400000.0 -0.00020199303980916739 8.234383130911738e-05
4069500000.0 -0.0005941962590441108 0.00013588796718977392
4069600000.0 -0.00015249768330249935 0.00011043433187296614
4069700000.0 -4.748639912577346e-05 0.00038452260196208954
4069800000.0 -0.0004981587408110499 0.00021640282648149878
4069900000.0 -0.0005674325511790812 0.00020643137395381927
4070000000.0 -0.0005541720311157405 0.0003730149182956666
4070100000.0 -9.990044054575264e-05 0.0005100468406453729
4070200000.0 -0.000201430608285591 0.000590076670050621
4070300000.0 4.770818122779019e-05 0.00042231378029100597
4070400000.0 1.85576755029615e-05 0.0003623311931733042
4070500000.0 -0.0001155514401034452 0.0006124592036940157
4070600000.0 -0.000200201480765827 0.0006172319408506155
4070700000.0 -4.5619111915584654e-05 6.428840424632654e-05
4070800000.0 -0.00021834294602740556 0.000580222113057971
4070900000.0 -1.2968932423973456e-05 0.00013479490007739514
4071000000.0 -0.0003119658213108778 0.00043775944504886866
4071100000.0 -0.0003143678477499634 0.00034234841587021947
4071200000.0 0.00020778852922376245 0.0002325927052879706
4071300000.0 0.00012805996811948717 0.0005474957870319486
4071400000.0 -0.00014823736273683608 0.0006538934540003538
4071500000.0 0.00018351497419644147 0.00020493264310061932
4071600000.0 -2.4536382625228725e-05 0.00016632096958346665
4071700000.0 -0.0002266619267174974 0.00017889958689920604
4071800000.0 -0.00022294619702734053 0.0003890054940711707
4071900000.0 0.0002971381472889334 0.00039597900467924774
4072000000.0 -0.0001642256829654798 0.00037757240352220833
4072100000.0 0.00033306205295957625 0.0002613543183542788
4072200000.0 -0.00012912380043417215 0.0004449461412150413
4072300000.0 0.00025469932006672025 0.000598084763623774
4072400000.0 7.867306521802675e-06 0.0005545997992157936
4072500000.0 -6.696771743008867e-05 0.00023766736558172852
4072600000.0 0.0003925510391127318 0.00037861321470700204
4072700000.0 4.011274086224148e-06 5.6975302868522704e-05
4072800000.0 0.000143919387483038 0.000495346961542964
4072900000.0 0.0003538882010616362 0.0004927090485580266
4073000000.0 0.0002775204775389284 2.6536750738159753e-05
4073100000.0 -7.828043635527138e-06 0.0002203065378125757
4073200000.0 0.0002135836984962225 0.0005136371473781765
4073300000.0 0.00017037794168572873 0.0005406925338320434
4073400000.0 0.00037927814992144704 0.0004943181993439794
4073500000.0 0.00010290162754245102 0.0003878219285979867
4073600000.0 0.0005140713765285909 0.00024224766821134835
4073700000.0 0.00022997423366177827 -9.218943887390196e-05
4073800000.0 0.00048717285972088575 6.537994340760633e-05
4073900000.0 5.261071783024818e-05 0.0002564441820140928
4074000000.0 0.00013255563681013882 0.00026282589533366263
4074100000.0 0.00032791803823783994 0.00028816855046898127
4074200000.0 0.00034345246967859566 -3.4409225918352604e-05
4074300000.0 0.0003963081690017134 0.0003571413108147681
4074400000.0 0.0005506218294613063 0.0002614287950564176
4074500000.0 0.00031489497632719576 0.00029962524422444403
4074600000.0 0.0003267138381488621 0.000310956675093621
4074700000.0 0.00034990147105418146 0.0003071007377002388
4074800000.0 3.0724509997526184e-05 3.2811934943310916e-05
4074900000.0 0.0001239164121216163 -4.1175822843797505e-05
4075000000.0 0.0005680944304913282 2.4847378881531768e-05
4075100000.0 0.0005659294547513127 -0.0001133750265580602
4075200000.0 0.00044440830242820084 -0.00015246828843373805
4075300000.0 0.00032306055072695017 0.00020161696011200547
4075400000.0 0.00035118256346322596 0.0002491591440048069
4075500000.0 0.00024726137053221464 0.00018399461987428367
4075600000.0 0.00027600195608101785 0.00020226162450853735
4075700000.0 0.00015292383613996208 -0.00032914671464823186
4075800000.0 7.51608022255823e-05 4.136390998610295e-06
4075900000.0 0.0003346041194163263 0.00019604881526902318
4076000000.0 0.0004390931280795485 0.00015083579637575895
4076100000.0 3.897561691701412e-05 -0.00014672106772195548
4076200000.0 0.00014046132855582982 -0.0003058027068618685
4076300000.0 -1.927310677274363e-06 -0.00015352708578575402
4076400000.0 0.0004699955170508474 9.792186028789729e-05
4076500000.0 0.00021291989833116531 5.016306022298522e-05
4076600000.0 0.000476127490401268 -9.035246330313385e-05
4076700000.0 0.0005907115992158651 -0.00021045526955276728
4076800000.0 0.00022759339481126517 1.7001286778395297e-06
4076900000.0 0.00027882284484803677 -3.065120108658448e-05
4077000000.0 0.00013525392569135875 -0.00042269175173714757
4077100000.0 -8.43119323690189e-06 -0.00012259365757927299
4077200000.0 0.0004057014302816242 -0.0002454807108733803
4077300000.0 0.0003616514732129872 -4.3780171836260706e-05
4077400000.0 -0.00012616589083336294 -0.0007402673945762217
4077500000.0 0.00034295496880076826 -8.034188067540526e-05
4077600000.0 1.74689048435539e-05 1.4950044715078548e-05
4077700000.0 0.00036420419928617775 -0.00030965806217864156
4077800000.0 -8.743858779780567e-05 -0.00029868021374568343
4077900000.0 9.319587115896866e-05 -2.2383362647815375e-06
4078000000.0 -0.00010607929289108142 -0.00020417482301127166
4078100000.0 0.00019751522631850094 -0.00041300529846921563
4078200000.0 0.0002622032188810408 -0.0003037193091586232
4078300000.0 -0.00014523651043418795 -0.00033178256126120687
4078400000.0 -0.00010075509635498747 -0.00019685272127389908
4078500000.0 0.00022547961270902306 -0.00010582403774606064
4078600000.0 -0.0001874661393230781 -0.0003751878102775663
4078700000.0 0.0002903291897382587 -0.0003171906864736229
4078800000.0 0.00023415390751324594 -0.0002047245652647689
4078900000.0 0.0002421009703539312 -0.00024413070059381425
4079000000.0 -8.765287202550098e-05 -0.0004966474371030927
4079100000.0 0.00014141915016807616 -0.00034533473080955446
4079200000.0 -2.801937807817012e-05 -3.389803532627411e-05
4079300000.0 0.00020001082157250494 -0.00023014849284663796
4079400000.0 7.966151315486059e-05 -0.00037482217885553837
4079500000.0 -7.135745545383543e-05 -8.297642125398852e-06
4079600000.0 -0.0001989654265344143 -0.00044266434269957244
4079700000.0 -0.00029061068198643625 -0.00029718136647716165
4079800000.0 -0.000280030450085178 -0.0001353573752567172
4079900000.0 -0.00015789047756697983 -0.0005155954859219491
4080000000.0 -0.00024496938567608595 -2.763456905086059e-05
4080100000.0 -0.00025276216911152005 0.00011709695536410436
4080200000.0 -9.879613935481757e-05 -0.0004916497855447233
4080300000.0 -0.00032356023439206183 -0.0003758886596187949
4080400000.0 -0.00025777705013751984 -0.0004168033192399889
4080500000.0 0.00012593581050168723 -0.00023840281937737018
4080600000.0 -0.00033720972714945674 1.469732615078101e-05
4080700000.0 0.0001230056514032185 -0.00016549813153687865
4080800000.0 -0.00029800881748087704 -4.271900252206251e-06
4080900000.0 -0.00018412212375551462 -0.0004243898147251457
4081000000.0 4.5457432861439884e-05 -0.0002700923359952867
4081100000.0 -4.5958717237226665e-05 0.00012585629883687943
4081200000.0 -1.0148373803531285e-05 -0.00019616512872744352
4081300000.0 -0.0003303245175629854 -0.0003286191786173731
4081400000.0 -0.00011404276301618665 0.00011961511336266994
4081500000.0 -0.00031449145171791315 -0.0003534160496201366
4081600000.0 -0.0001938431232701987 9.854322706814855e-05
4081700000.0 1.2438085832400247e-05 4.072999672644073e-06
4081800000.0 -0.00015211047139018774 0.0003853168454952538
4081900000.0 -0.00025205916608683765 0.00012787748710252345
4082000000.0 -0.0002516826498322189 -0.00029993976932018995
4082100000.0 -0.0005049034371040761 -0.0001783426123438403
4082200000.0 -0.0001122466564993374 0.00020774804579559714
4082300000.0 -0.0003853639354929328 -0.00023368709662463516
4082400000.0 2.6019954020739533e-05 -2.9164306397433393e-05
4082500000.0 -0.00011096314119640738 -0.00029336020816117525
4082600000.0 -0.0004182357806712389 -0.0001590971660334617
4082700000.0 -0.0003238432400394231 0.0002780951908789575
4082800000.0 -3.969841418438591e-05 0.00020040485833305866
4082900000.0 -0.00041647153557278216 -0.00025711130001582205
4083000000.0 -0.000301994732581079 -0.00020579843840096146
4083100000.0 -0.0003636406036093831 -0.0002083105791825801
4083200000.0 -0.0003751149633899331 -0.0001498570927651599
4083300000.0 -0.00019478946342132986 -0.0001473626762162894
4083400000.0 0.00012545847857836634 -0.00018447168986313045
4083500000.0 -0.0003804858133662492 -1.6156316632987e-05
4083600000.0 -0.00043941984768025577 0.00011796026956290007
4083700000.0 -0.000329322851030156 -0.00013847294030711055
4083800000.0 1.3259777006169315e-05 1.2204298400320113e-05
4083900000.0 3.2884727261262015e-05 -2.690593873921898e-06
4084000000.0 -0.00043324255966581404 0.00019463668286334723
4084100000.0 4.028028706670739e-05 0.00030314174364320934
4084200000.0 -0.00025677314260974526 -0.00011369346611900255
4084300000.0 -0.0003693578182719648 -7.475224265363067e-05
4084400000.0 -0.00031525411759503186 -2.4881997887860052e-05
4084500000.0 0.00010488819680176675 0.00020326201047282666
4084600000.0 -5.395964763010852e-05 0.00037227931898087263
4084700000.0 5.2167677495162934e-05 2.6753186830319464e-05
4084800000.0 2.418996700725984e-06 0.0003157730388920754
4084900000.0 -0.000381603924324736 0.00013260217383503914
4085000000.0 -0.00023710385721642524 -4.8709098336985335e-05
4085100000.0 -0.00014435278717428446 0.00022689762408845127
4085200000.0 -0.0003778058453463018 9.540134487906471e-05
4085300000.0 1.9962824353569886e-06 0.00042965819011442363
4085400000.0 9.898890857584774e-05 0.00010386607027612627
4085500000.0 0.00014289100363384932 0.0003390250785741955
4085600000.0 8.07883552624844e-05 0.00036801258102059364
4085700000.0 0.0001876846799859777 0.00033334846375510097
4085800000.0 6.131223926786333e-05 0.000247722229687497
4085900000.0 -0.00010341594315832481 4.548697324935347e-05
4086000000.0 -0.00010973066673614085 -3.57358148903586e-05
4086100000.0 -0.0002819789224304259 7.742906018393114e-05
4086200000.0 0.00014731920964550227 0.00020505204156506807
4086300000.0 -0.00017738410679157823 0.00040588766569271684
4086400000.0 -9.479647997068241e-05 0.0004173488123342395
4086500000.0 8.099330443656072e-05 0.0004329691582825035
4086600000.0 -0.0002270187542308122 0.00032465870026499033
4086700000.0 -0.00022814073599874973 0.00022321179858408868
4086800000.0 -7.517465564887971e-05 0.00013460862101055682
4086900000.0 0.00013361162564251572 -6.768435559934005e-05
4087000000.0 -7.517878111684695e-05 0.0003912885149475187
4087100000.0 0.0001066367476596497 0.0004516873450484127
4087200000.0 -0.0001377812441205606 0.00013166417193133384
4087300000.0 -6.718295480823144e-05 0.0003588238905649632
4087400000.0 -0.00015637598698958755 0.00019326381152495742
4087500000.0 0.00034034712007269263 0.0003016026457771659
4087600000.0 -0.00012657126353587955 0.00027583763585425913
4087700000.0 -9.916182898450643e-05 0.00035424064844846725
4087800000.0 -4.517144043347798e-05 0.00039558319258503616
4087900000.0 -2.4744409529375844e-05 0.0003310874162707478
4088000000.0 -1.0125328117283061e-05 -5.598035204457119e-05
4088100000.0 -8.172701200237498e-05 0.00030372352921403944
4088200000.0 -0.0001392687699990347 0.000206381781026721
4088300000.0 -6.0882888647029176e-05 0.00028048426611348987
4088400000.0 0.0005962379509583116 -2.2764313598599983e-06
4088500000.0 0.00020718242740258574 -7.355777779594064e-05
4088600000.0 0.0004148207081016153 0.00016210356261581182
4088700000.0 0.00031179547659121454 0.00034814313403330743
4088800000.0 -5.094933294458315e-05 0.00018890557112172246
4088900000.0 -2.4168033633031882e-05 0.0001967214047908783
4089000000.0 -1.93247997231083e-05 0.00028068217216059566
4089100000.0 -7.332953828154132e-06 0.00013143484829925
4089200000.0 -7.965252734720707e-06 0.00013632653281092644
4089300000.0 2.9515296773752198e-05 0.00020038655202370137
4089400000.0 3.71090391126927e-05 -5.774774763267487e-05
4089500000.0 0.0001734811085043475 0.0002779772039502859
4089600000.0 0.00047024013474583626 -3.4370383218629286e-05
4089700000.0 0.000441902520833537 0.0001899389026220888
4089800000.0 0.00011108246690127999 -0.0001252714719157666
4089900000.0 0.00015375233488157392 0.0002824803232215345
4090000000.0 0.0004421017365530133 5.305969170876779e-05
4090100000.0 -0.00011059678945457563 6.431929705286166e-06
4090200000.0 0.00031722005223855376 -0.0001285785692743957
4090300000.0 -3.654992542578839e-05 2.0682604372268543e-05
4090400000.0 0.0003863158926833421 -0.00012482960300985724
4090500000.0 -3.3431293559260666e-05 -9.896411938825622e-05
4090600000.0 -2.067035347863566e-05 -0.00013013827265240252
4090700000.0 4.859092950937338e-05 -0.0002073931973427534
4090800000.0 0.0003703139373101294 8.517553942510858e-05
4090900000.0 0.0002390883455518633 0.00014118249237071723
4091000000.0 0.0002544014423619956 -0.00025501346681267023
4091100000.0 -0.00011746368545573205 -4.532830644166097e-05
4091200000.0 0.00018494584946893156 0.0001236757088918239
4091300000.0 -2.910093098762445e-05 9.492736717220396e-05
4091400000.0 0.0004316462727729231 1.1424701369833201e-05
4091500000.0 0.00020181060244794935 -0.00034108568797819316
4091600000.0 2.7342186513124034e-05 -0.000283707253402099
4091700000.0 -1.7554315490997396e-05 -0.0001393327838741243
4091800000.0 0.00028215983184054494 5.5137465096777305e-05
4091900000.0 0.0001507041888544336 8.84570472408086e-05
4092000000.0 -3.173196819261648e-05 3.684241164592095e-05
4092100000.0 0.00018736335914582014 0.0001739948202157393
4092200000.0 -7.086852747306693e-06 -0.0003309576422907412
4092300000.0 0.00038054626202210784 -9.052989480551332e-05
4092400000.0 -0.00010091161675518379 -2.437451621517539e-05
4092500000.0 -1.832020097936038e-05 -9.598173346603289e-05
4092600000.0 -5.0186812586616725e-05 -0.00029530515894293785
4092700000.0 -8.613118552602828e-05 4.337362770456821e-05
4092800000.0 -0.0002094358642352745 -0.0003244968829676509
4092900000.0 -0.0001092981401598081 -0.0002758865593932569
4093000000.0 0.000289493560558185 2.063435857735385e-07
4093100000.0 0.0002980005810968578 -0.0002802942763082683
4093200000.0 0.00017273197590839118 -0.0003540518519002944
4093300000.0 -0.0001310999650740996 -0.0001572560431668535
4093400000.0 0.00027004655566997826 -0.0002613449760247022
4093500000.0 0.00019817182328552008 -2.0095083527849056e-05
4093600000.0 0.00020227029745001346 -3.4158481412305264e-06
4093700000.0 -0.00011663943587336689 -8.783643716014922e-05
4093800000.0 3.243432001909241e-05 -1.0877119166252669e-05
4093900000.0 8.306633390020579e-05 -5.6120246881619096e-05
4094000000.0 0.0002056614903267473 -8.339762280229479e-05
4094100000.0 -2.5678073143353686e-05 -0.0004052536387462169
4094200000.0 0.00017962865240406245 -0.00018483206804376096
4094300000.0 9.809544280869886e-05 -0.00040316948434337974
4094400000.0 3.9323662349488586e-05 -0.00011825034744106233
4094500000.0 -0.00011055800132453442 -0.00037112750578671694
4094600000.0 -0.00017885053239297122 4.59956208942458e-06
4094700000.0 0.00010121510422322899 -0.0003185452660545707
4094800000.0 4.05544342356734e-05 4.3572323193075135e-05
4094900000.0 -5.082145071355626e-05 -0.0003982005873695016
4095000000.0 -0.00029602405265904963 -0.00020346154633443803
4095100000.0 0.00010080936772283167 -0.0002660664904396981
4095200000.0 -2.783030595310265e-06 -0.0004068936686962843
4095300000.0 -0.0002641202590893954 -3.7609577702824026e-05
4095400000.0 0.00012669491115957499 6.477869465015829e-05
4095500000.0 -0.00022792837989982218 9.045137994689867e-05
4095600000.0 -0.00029904217808507383 -0.0001652985083637759
4095700000.0 -0.0002471357292961329 5.601747034233995e-05
4095800000.0 -5.210904419072904e-05 -0.0003619365452323109
4095900000.0 -5.7901102081814315e-06 -0.00027006768505088985
4096000000.0 2.670172216312494e-05 -4.861003253608942e-05
4096100000.0 -0.00020008151477668434 -0.00010686240420909598
4096200000.0 -0.00039399840170517564 -0.00018422525317873806
4096300000.0 1.3993666470923927e-05 -0.00029036507476121187
4096400000.0 -0.00022638171503785998 -0.00032697466667741537
4096500000.0 -4.16486946051009e-05 8.603312016930431e-05
4096600000.0 -0.00027769163716584444 -0.0002807210839819163
4096700000.0 -0.00028071977430954576 0.0001779204176273197
4096800000.0 -0.00034934625728055835 7.583418482681736e-05
4096900000.0 1.1708624697348569e-05 6.713140464853495e-05
4097000000.0 1.7144517187261954e-05 -4.628594069799874e-06
4097100000.0 -2.929800575657282e-05 0.0001620493276277557
4097200000.0 -0.00012650241842493415 -0.00021672605362255126
4097300000.0 -0.0003903409233316779 -4.1971445170929655e-05
4097400000.0 2.8437201763154007e-05 7.342467870330438e-05
4097500000.0 -0.00042829092126339674 2.5879766326397657e-05
4097600000.0 -0.00027253024745732546 -0.00020559022959787399
4097700000.0 -5.347912974684732e-06 -0.00015632675786036998
4097800000.0 -0.0004105384577997029 -0.0001862989302026108
4097900000.0 4.953798634232953e-05 -5.1786100812023506e-05
4098000000.0 -0.0004479464842006564 1.70744021943392e-06
4098100000.0 -0.00044436982716433704 -8.176577466656454e-06
4098200000.0 -0.00039918371476233006 0.00015052476373966783
4098300000.0 -0.00011333232396282256 -0.00018967603682540357
4098400000.0 -6.004456372465938e-05 -0.00018285786791238934
4098500000.0 -0.00012818801042158157 0.0002511938218958676
4098600000.0 -0.00024489470524713397 0.00028202845714986324
4098700000.0 -0.0002924911386799067 -0.00014644874318037182
4098800000.0 -0.00022429281671065837 -3.4247823350597173e-06
4098900000.0 -0.0003564805956557393 0.00017231234232895076
4099000000.0 1.7775439118850045e-05 0.00022825546329841018
4099100000.0 -3.276582356193103e-05 0.0002625476918183267
4099200000.0 -4.675201853387989e-05 0.000305289140669629
4099300000.0 -0.00038978486554697156 2.685653726075543e-06
4099400000.0 -0.0003174406592734158 3.739565727300942e-05
4099500000.0 -4.506175173446536e-05 -0.00012286250421311706
4099600000.0 -0.00013929459964856505 -3.0067072657402605e-05
4099700000.0 -0.00032424836535938084 -4.748994251713157e-05
4099800000.0 -0.00037611674633808434 0.00027219217736274004
4099900000.0 3.81739046133589e-05 2.2468144379672594e-05
4100000000.0 -0.00028409980586729944 -1.1042828191420995e-05
