! Created with skrf 1.10.0 (http://scikit-rf.org).
# Hz S RI R 50.0 
!freq ReS11 ImS11
!
4000000000.0 0.00097286218078807 -0.00011829457798739895
4000100000.0 0.00075876823393628 -0.0004664933658204973
4000200000.0 0.0010696434183046222 -0.00022971874568611383
4000300000.0 0.0010653383797034621 -0.0005407403223216534
4000400000.0 0.0011210471857339144 -0.0004398853634484112
4000500000.0 0.00034991474240086973 -0.0006815699744038284
4000600000.0 0.0006725057610310614 -0.0006951903342269361
4000700000.0 0.000898342696018517 -0.0007629054598510265
4000800000.0 0.0007247588946484029 -0.0008140012505464256
4000900000.0 0.0006906311609782279 -0.0005096454988233745
4001000000.0 0.0007897521718405187 -0.0004972568131051958
4001100000.0 0.0004856148734688759 -0.0005031039472669363
4001200000.0 0.0008351847063750029 -0.000794882420450449
4001300000.0 0.0007854888681322336 -0.0008266216609627008
4001400000.0 0.0004727321502286941 -0.0010256227105855942
4001500000.0 0.0006471136002801359 -0.0006492501124739647
4001600000.0 0.0006867034826427698 -0.0008669454837217927
4001700000.0 0.0003230565052945167 -0.0006841194699518383
4001800000.0 0.000333211210090667 -0.001066430821083486
4001900000.0 0.00042405567364767194 -0.0010892759310081601
4002000000.0 0.0003366545424796641 -0.0007457871688529849
4002100000.0 0.00030346648418344557 -0.001223147613927722
4002200000.0 0.00017794650921132416 -0.0007705879397690296
4002300000.0 0.00026494014309719205 -0.0011802244698628783
4002400000.0 0.0003557692689355463 -0.0009297769865952432
4002500000.0 -6.695416232105345e-05 -0.0010223750723525882
4002600000.0 -5.9861180488951504e-05 -0.0011086626909673214
4002700000.0 0.00016117496124934405 -0.0008439534576609731
4002800000.0 0.00018796173390001059 -0.0008871557656675577
4002900000.0 0.00014569167979061604 -0.0010392896365374327
4003000000.0 -1.4461507817031816e-05 -0.0008217704598791897
4003100000.0 1.0164775630983058e-05 -0.0008535786182619631
4003200000.0 -0.0003889960062224418 -0.0008885450661182404
4003300000.0 -6.144355575088412e-05 -0.0010569803416728973
4003400000.0 -0.0002542022557463497 -0.0011622284073382616
4003500000.0 -0.00042896499508060515 -0.0007671993807889521
4003600000.0 -0.00037834738031961024 -0.0007272733491845429
4003700000.0 -6.792123895138502e-05 -0.0008371938019990921
4003800000.0 -0.000561809167265892 -0.0009303501574322581
4003900000.0 -0.0006707546417601407 -0.0008698448655195534
4004000000.0 -0.0006190474377945065 -0.0006688397843390703
4004100000.0 -0.0007029696716926992 -0.0006574426079168916
4004200000.0 -0.0007366656209342182 -0.000892096955794841
4004300000.0 -0.0005266711814329028 -0.000909367750864476
4004400000.0 -0.0006351892952807248 -0.0009343985002487898
4004500000.0 -0.0007192336488515139 -0.0005225120112299919
4004600000.0 -0.0007468829862773418 -0.0004914276069030166
4004700000.0 -0.0005323278019204736 -0.0004984563565813005
4004800000.0 -0.0008582983864471316 -0.0007922779768705368
4004900000.0 -0.0009262857493013144 -0.0004175773065071553
4005000000.0 -0.0011045665014535189 -0.0005485943402163684
4005100000.0 -0.0007120351074263453 -0.0005852116737514734
4005200000.0 -0.0009603023063391447 -0.0002433624176774174
4005300000.0 -0.0008153084781952202 -0.00018845662998501211
4005400000.0 -0.0008241753675974905 -0.0005952552892267704
4005500000.0 -0.0011436955537647009 -0.0001802837650757283
4005600000.0 -0.0008787401020526886 -0.00040867042844183743
4005700000.0 -0.0011243795743212104 -0.0003185660461895168
4005800000.0 -0.0007778741419315338 -0.00013179689995013177
4005900000.0 -0.0009696485940366983 0.00010915930761257187
4006000000.0 -0.0009217821061611176 0.00012371795310173184
4006100000.0 -0.0008714030846022069 9.855073585640639e-05
4006200000.0 -0.0008632116368971765 -9.838714322540909e-05
4006300000.0 -0.0012070081429556012 9.983033669413999e-05
4006400000.0 -0.0012335460633039474 1.8480344806448556e-05
4006500000.0 -0.0009586147498339415 0.00030643053469248116
4006600000.0 -0.0009844065643846989 -8.948763024818618e-06
4006700000.0 -0.0008729592664167285 0.0004768549115397036
4006800000.0 -0.0009007797343656421 9.439138375455514e-05
4006900000.0 -0.0010399484308436513 0.00017555577505845577
4007000000.0 -0.0009311427129432559 0.0002245827781734988
4007100000.0 -0.0009368305327370763 0.0006544245406985283
4007200000.0 -0.0007767429342493415 0.000560264044906944
4007300000.0 -0.0009864955209195614 0.000677351257763803
4007400000.0 -0.0010783771285787225 0.0005123018054291606
4007500000.0 -0.0008378554484806955 0.0007705686730332673
4007600000.0 -0.0007945596589706838 0.0008018989465199411
4007700000.0 -0.0006765931029804051 0.000790782505646348
4007800000.0 -0.0008586921612732112 0.0005233757547102869
4007900000.0 -0.0009197785402648151 0.00079278030898422
4008000000.0 -0.0005419559893198311 0.0008820126531645656
4008100000.0 -0.000816325016785413 0.0007301552686840296
4008200000.0 -0.000593056611251086 0.0009573664283379912
4008300000.0 -0.000727786507923156 0.0005918221431784332
4008400000.0 -0.0004757429123856127 0.0011186286574229598
4008500000.0 -0.0003355660883244127 0.000763515941798687
4008600000.0 -0.0002428381412755698 0.0009555816068314016
4008700000.0 -0.0005895131616853178 0.0007754370453767478
4008800000.0 -0.0006839121342636645 0.0008846221608109772
4008900000.0 -0.0003861247969325632 0.0007877548923715949
4009000000.0 -0.00045772932935506105 0.0008286118973046541
4009100000.0 -0.00045040223631076515 0.0008820043876767159
4009200000.0 -0.00042046300950460136 0.0009820694103837013
4009300000.0 -0.00034730075276456773 0.001097321743145585
4009400000.0 -0.00011815940524684265 0.001218145713210106
4009500000.0 -6.292394573392812e-06 0.0011942723067477345
4009600000.0 -4.188730599707924e-06 0.001254736096598208
4009700000.0 0.00020553101785480976 0.0010259683476760983
4009800000.0 5.3507654229179025e-05 0.0011444399133324623
4009900000.0 0.00031329275225289166 0.0009801379637792706
4010000000.0 0.00036084282328374684 0.001092422753572464
4010100000.0 0.0004167676670476794 0.0010059799533337355
4010200000.0 0.00011510952026583254 0.000920239370316267
4010300000.0 0.00015816355880815536 0.0008899678359739482
4010400000.0 0.0001793539267964661 0.0009577085729688406
4010500000.0 0.00021665223175659776 0.0011060535907745361
4010600000.0 0.00037684524431824684 0.0007975274347700179
4010700000.0 0.00045497523387894034 0.0011385252000764012
4010800000.0 0.0006951573886908591 0.0010587514843791723
4010900000.0 0.0005931105115450919 0.0010875790612772107
4011000000.0 0.0005260548205114901 0.0005828381981700659
4011100000.0 0.0006488421931862831 0.0005897794617339969
4011200000.0 0.0009006269974634051 0.0009548490634188056
4011300000.0 0.0006822594441473484 0.0009776762453839183
4011400000.0 0.0007449521217495203 0.0009571198024787009
4011500000.0 0.0013129720464348793 0.000700243515893817
4011600000.0 0.001022037584334612 0.0008202257449738681
4011700000.0 0.0010215764632448554 0.0007943731616251171
4011800000.0 0.0009725878480821848 0.0008254394633695483
4011900000.0 0.0007050759741105139 0.0006585897644981742
4012000000.0 0.0010370677337050438 0.0006793704233132303
4012100000.0 0.0008167941705323756 0.0004256347310729325
4012200000.0 0.0009230883442796767 0.0006193710141815245
4012300000.0 0.0011365803657099605 0.0005372415180318058
4012400000.0 0.0010459821205586195 0.0001400531327817589
4012500000.0 0.0012165531516075134 0.000307711074128747
4012600000.0 0.0008616257109679282 0.00022107629047241062
4012700000.0 0.0010623654816299677 -6.228159327292815e-05
4012800000.0 0.0008957807440310717 0.00018452174845151603
4012900000.0 0.0009555857395753264 -1.9596051060943864e-05
4013000000.0 0.001116898492909968 -0.00012314777995925397
4013100000.0 0.0007184072164818645 -0.00016329695063177496
4013200000.0 0.0013178718509152532 5.982075890642591e-05
4013300000.0 0.0013046425301581621 -0.00011403003736631945
4013400000.0 0.0013245140435174108 -0.00026938834344036877
4013500000.0 0.0012084986083209515 2.4907387341954745e-05
4013600000.0 0.001248034881427884 -6.700061203446239e-05
4013700000.0 0.0012407818576321006 -0.0002542987640481442
4013800000.0 0.0010540859075263143 -0.0005425698473118246
4013900000.0 0.0011505709262564778 -0.0005751874414272606
4014000000.0 0.0010038799373432994 -0.000236684616538696
4014100000.0 0.0009717596112750471 -0.0007016260060481727
4014200000.0 0.0009064475307241082 -0.00041430353303439915
4014300000.0 0.001189649454317987 -0.0004951418959535658
4014400000.0 0.0009395243832841516 -0.0005978326080366969
4014500000.0 0.0010232565691694617 -0.0008922786801122129
4014600000.0 0.0006898703286424279 -0.0006965188076719642
4014700000.0 0.0009168311371468008 -0.0008306936360895634
4014800000.0 0.0010560124646872282 -0.0007579770754091442
4014900000.0 0.0009385712910443544 -0.0010102130472660065
4015000000.0 0.0009853173978626728 -0.0010319965658709407
4015100000.0 0.0009485337068326771 -0.001008983119390905
4015200000.0 0.0008286783704534173 -0.0011489444877952337
4015300000.0 0.00046424244646914303 -0.001099520013667643
4015400000.0 0.0006249813013710082 -0.0012873406521975994
4015500000.0 0.0007484846282750368 -0.0010969279101118445
4015600000.0 0.0004307454510126263 -0.0009471147204749286
4015700000.0 0.0002320374915143475 -0.0011784511152654886
4015800000.0 0.0002444437996018678 -0.001123440102674067
4015900000.0 0.0001509038411313668 -0.0011731775011867285
4016000000.0 0.0004041078209411353 -0.001035418827086687
4016100000.0 0.0004212410713080317 -0.0013628186425194144
4016200000.0 0.00031980100902728736 -0.0010719125857576728
4016300000.0 -8.455196802970022e-05 -0.0011920827673748136
4016400000.0 0.0002343483065487817 -0.0009491272503510118
4016500000.0 0.00022898041061125696 -0.00127508828882128
4016600000.0 -0.0002262897469336167 -0.0012218045303598046
4016700000.0 -0.00029004921088926494 -0.0012325879652053118
4016800000.0 1.4539051335304976e-05 -0.001096323598176241
4016900000.0 -9.253530879504979e-05 -0.001453025033697486
4017000000.0 -0.00015322949911933392 -0.0014473575865849853
4017100000.0 -0.0001666533062234521 -0.0013643552083522081
4017200000.0 -0.0005294279544614255 -0.0011574485106393695
4017300000.0 -0.0006381164421327412 -0.001216468052007258
4017400000.0 -0.00025095572345890105 -0.0010924723464995623
4017500000.0 -0.0007074769819155335 -0.001381365000270307
4017600000.0 -0.0007965986733324826 -0.0012517161667346954
4017700000.0 -0.0004455144808162004 -0.0011488002492114902
4017800000.0 -0.0005736360908485949 -0.0013324363389983773
4017900000.0 -0.0007707152981311083 -0.0009044547332450747
4018000000.0 -0.0006153648137114942 -0.0010845002252608538
4018100000.0 -0.0005809179856441915 -0.0007772801909595728
4018200000.0 -0.0008052340708673 -0.001115048653446138
4018300000.0 -0.001145482761785388 -0.0008437950164079666
4018400000.0 -0.000840900291223079 -0.0007226799498312175
4018500000.0 -0.0011304336367174983 -0.0010796344140544534
4018600000.0 -0.0013702489668503404 -0.0008158013224601746
4018700000.0 -0.001109847566112876 -0.0009838218102231622
4018800000.0 -0.0010050642304122448 -0.0005980022251605988
4018900000.0 -0.0011711817933246493 -0.0008765122620388865
4019000000.0 -0.0010882809292525053 -0.0005202247994020581
4019100000.0 -0.0014716682489961386 -0.0006400420679710805
4019200000.0 -0.0013673326466232538 -0.00031487958040088415
4019300000.0 -0.0012372586643323302 -0.000316408317303285
4019400000.0 -0.0016043209470808506 -0.00045608144137077034
4019500000.0 -0.001499673118814826 -0.00011767871910706162
4019600000.0 -0.0015463538002222776 -0.0004958725185133517
4019700000.0 -0.0014648810029029846 -0.0003403369337320328
4019800000.0 -0.0013875896111130714 -7.2692651883699e-05
4019900000.0 -0.0016024750657379627 0.00013348714855965227
4020000000.0 -0.0013121376978233457 5.901054464629851e-06
4020100000.0 -0.0013478457694873214 4.6171489884727634e-06
4020200000.0 -0.0017074978677555919 0.00019774188695009798
4020300000.0 -0.0016319087008014321 7.334340625675395e-05
4020400000.0 -0.0016710616182535887 0.000490430393256247
4020500000.0 -0.001644871779717505 0.00046132825082167983
4020600000.0 -0.0017041872488334775 0.0005710383993573487
4020700000.0 -0.001255287672393024 0.0004760610172525048
4020800000.0 -0.001622066949494183 0.0007160044042393565
4020900000.0 -0.001282895216718316 0.0005754605517722666
4021000000.0 -0.0014167287154123187 0.000572283985093236
4021100000.0 -0.0012144270585849881 0.0006207086844369769
4021200000.0 -0.0014966486487537622 0.0010431441478431225
4021300000.0 -0.0013976129703223705 0.0008397619822062552
4021400000.0 -0.001250287750735879 0.0005887504084967077
4021500000.0 -0.0009922271128743887 0.0012321623507887125
4021600000.0 -0.0011975845554843545 0.000973489775788039
4021700000.0 -0.0009686245466582477 0.0013166655553504825
4021800000.0 -0.001199988997541368 0.0012757520889863372
4021900000.0 -0.0007962659001350403 0.0013741189613938332
4022000000.0 -0.001104862429201603 0.0014410860603675246
4022100000.0 -0.0007194271311163902 0.0016119853826239705
4022200000.0 -0.0008479511016048491 0.001738602644763887
4022300000.0 -0.0009347361628897488 0.0016702715074643493
4022400000.0 -0.0008358937921002507 0.00172253733035177
4022500000.0 -0.0004151922184973955 0.0016701041022315621
4022600000.0 -0.00033409404568374157 0.0015776404179632664
4022700000.0 -0.000664324383251369 0.0015889359638094902
4022800000.0 -0.00032526650466024876 0.002001176355406642
4022900000.0 -0.00016206408326979727 0.0015624405350536108
4023000000.0 -0.00015399621042888612 0.0019711654167622328
4023100000.0 -0.00010733340604929253 0.0015508965589106083
4023200000.0 0.0001607104786671698 0.0017204961040988564
4023300000.0 0.0003217415069229901 0.0018039197893813252
4023400000.0 0.00034022514591924846 0.001665752730332315
4023500000.0 0.00010803661280078813 0.0017627538181841373
4023600000.0 0.0005116027896292508 0.0016360767185688019
4023700000.0 0.0006176705355755985 0.0016952904406934977
4023800000.0 0.00045937945833429694 0.0016983491368591785
4023900000.0 0.0008520704577676952 0.0019029389368370175
4024000000.0 0.0007511626463383436 0.0016217074589803815
4024100000.0 0.0007132002501748502 0.0018668326083570719
4024200000.0 0.0007877213065512478 0.0018253281014040112
4024300000.0 0.0012819712283089757 0.0016962330555543303
4024400000.0 0.0009473420795984566 0.0016355639090761542
4024500000.0 0.0013044312363490462 0.0013789490330964327
4024600000.0 0.0015599599573761225 0.0014641607413068414
4024700000.0 0.0016096325125545263 0.0013806521892547607
4024800000.0 0.0017077679513022304 0.0014524725265800953
4024900000.0 0.0016202038386836648 0.0015557970618829131
4025000000.0 0.0018327614525333047 0.0010913796722888947
4025100000.0 0.0018729475559666753 0.0011616910342127085
4025200000.0 0.0017880011582747102 0.0013171728933230042
4025300000.0 0.001758314436301589 0.0007965592667460442
4025400000.0 0.0021330672316253185 0.0009653083398006856
4025500000.0 0.001887734280899167 0.0005640496383421123
4025600000.0 0.001890222541987896 0.0008645921479910612
4025700000.0 0.0018377074738964438 0.0004596250946633518
4025800000.0 0.0023291369434446096 0.0006266110576689243
4025900000.0 0.002111661247909069 0.00017135628149844706
4026000000.0 0.002336581237614155 0.00036777814966626465
4026100000.0 0.0022884292993694544 0.00034829814103432
4026200000.0 0.0020521453116089106 0.00025699808611534536
4026300000.0 0.0022509589325636625 -0.0002460515534039587
4026400000.0 0.0022657429799437523 -0.00027312926249578595
4026500000.0 0.002035809913650155 -0.00034779831185005605
4026600000.0 0.0024042504373937845 -0.0004505350370891392
4026700000.0 0.002334647113457322 -0.0003203683299943805
4026800000.0 0.002044128719717264 -0.0006013275706209242
4026900000.0 0.0019371622474864125 -0.0008114938391372561
4027000000.0 0.002291443757712841 -0.0010816134745255113
4027100000.0 0.0020897635258734226 -0.001183218089863658
4027200000.0 0.0022916439920663834 -0.001144219422712922
4027300000.0 0.0022155523765832186 -0.00121414999011904
4027400000.0 0.002166270511224866 -0.0008456552168354392
4027500000.0 0.0020091591868549585 -0.0016782839084044099
4027600000.0 0.0018409059848636389 -0.0014002659590914845
4027700000.0 0.0015783548587933183 -0.0015127944061532617
4027800000.0 0.0014010765589773655 -0.0017851315205916762
4027900000.0 0.0017400094075128436 -0.002046278677880764
4028000000.0 0.001627387828193605 -0.0019730636849999428
4028100000.0 0.001181247760541737 -0.002159335883334279
4028200000.0 0.001048210309818387 -0.0019448978127911687
4028300000.0 0.0012416322715580463 -0.002052251948043704
4028400000.0 0.0010551001178100705 -0.00254469970241189
4028500000.0 0.0008565857424400747 -0.002582705579698086
4028600000.0 0.0009499907027930021 -0.0023806612007319927
4028700000.0 0.0004819915338885039 -0.0025782762095332146
4028800000.0 0.00040640687802806497 -0.002723960904404521
4028900000.0 0.00020621130533982068 -0.00246648327447474
4029000000.0 0.000491901533678174 -0.002419128781184554
4029100000.0 2.7179523385711946e-05 -0.002291229320690036
4029200000.0 -0.00011219546286156401 -0.0024012906942516565
4029300000.0 -0.00024962698807939887 -0.002456456422805786
4029400000.0 -0.00044770591193810105 -0.002464588265866041
4029500000.0 -0.00068329565692693 -0.0027444653678685427
4029600000.0 -0.0008213985711336136 -0.0024505851324647665
4029700000.0 -0.0005817644996568561 -0.0024865770246833563
4029800000.0 -0.0008504724828526378 -0.0023878535721451044
4029900000.0 -0.0011837451020255685 -0.0023138003889471292
4030000000.0 -0.0009868890047073364 -0.002331793773919344
4030100000.0 -0.0011756604071706533 -0.0026278006844222546
4030200000.0 -0.00129021389875561 -0.00234769145026803
4030300000.0 -0.001490993076004088 -0.002083097118884325
4030400000.0 -0.0015555350109934807 -0.0019488459220156074
4030500000.0 -0.0016227811574935913 -0.002196288900449872
4030600000.0 -0.0019206326687708497 -0.0021052879747003317
4030700000.0 -0.002246142365038395 -0.001937499619089067
4030800000.0 -0.0020859187934547663 -0.0018404478905722499
4030900000.0 -0.002364402636885643 -0.0013694411609321833
4031000000.0 -0.0020921616815030575 -0.0015173630090430379
4031100000.0 -0.0023118730168789625 -0.0011978630209341645
4031200000.0 -0.002373629016801715 -0.0013733538798987865
4031300000.0 -0.002296081278473139 -0.0010808048537001014
4031400000.0 -0.002841358771547675 -0.0010183167178183794
4031500000.0 -0.0025364262983202934 -0.0007273193332366645
4031600000.0 -0.002609806600958109 -0.0008395931217819452
4031700000.0 -0.002797479974105954 -0.000773686682805419
4031800000.0 -0.002816516440361738 -0.00019533706654328853
4031900000.0 -0.0026801149360835552 -0.0004561030073091388
4032000000.0 -0.002720803953707218 -0.00030663865618407726
4032100000.0 -0.0026993444189429283 -6.011295045027509e-05
4032200000.0 -0.002894616685807705 3.4891221730504185e-05
4032300000.0 -0.0027880265843123198 0.00019931008864659816
4032400000.0 -0.0031362981535494328 0.00041520275408402085
4032500000.0 -0.0026697013527154922 0.0005929075996391475
4032600000.0 -0.002849855460226536 0.0006609951960854232
4032700000.0 -0.002772429957985878 0.0008292705751955509
4032800000.0 -0.0027892247308045626 0.0013422392075881362
4032900000.0 -0.0026240746956318617 0.001478757825680077
4033000000.0 -0.002673521637916565 0.0014406179543584585
4033100000.0 -0.002325559500604868 0.001420914544723928
4033200000.0 -0.0022133367601782084 0.0018631714629009366
4033300000.0 -0.002419273601844907 0.001961728557944298
4033400000.0 -0.0019482496427372098 0.0018238490447402
4033500000.0 -0.0018561405595391989 0.002193852560594678
4033600000.0 -0.002018609782680869 0.00197475659660995
4033700000.0 -0.001856129732914269 0.002475751331076026
4033800000.0 -0.0017822167137637734 0.002539083594456315
4033900000.0 -0.0017191016813740134 0.0023963565472513437
4034000000.0 -0.0014190231449902058 0.002351753879338503
4034100000.0 -0.0012058072024956346 0.002532161772251129
4034200000.0 -0.0009266646229662001 0.002573681063950062
4034300000.0 -0.0011049940949305892 0.0026651748921722174
4034400000.0 -0.0006699083023704588 0.002969849156215787
4034500000.0 -0.0008363014203496277 0.0027602496556937695
4034600000.0 -0.0006526653305627406 0.002998206065967679
4034700000.0 -0.000488030695123598 0.0026818078476935625
4034800000.0 -0.0002968303160741925 0.0029912868048995733
4034900000.0 -1.4697202459501568e-06 0.002675165655091405
4035000000.0 -7.4676179792732e-05 0.00299438857473433
4035100000.0 0.0006634824094362557 0.002502716612070799
4035200000.0 0.00039233017014339566 0.003064144868403673
4035300000.0 0.00041878517367877066 0.0029201917350292206
4035400000.0 0.0004987745778635144 0.0027929593343287706
4035500000.0 0.0010790647938847542 0.002791112056002021
4035600000.0 0.0011827609268948436 0.002760307164862752
4035700000.0 0.0011748725082725286 0.002355264499783516
4035800000.0 0.0014840582152828574 0.0024643896613270044
4035900000.0 0.0014433637261390686 0.0027284566313028336
4036000000.0 0.001611625775694847 0.0021424507722258568
4036100000.0 0.0017854881007224321 0.002180446172133088
4036200000.0 0.0015939007280394435 0.0020579961128532887
4036300000.0 0.002147311344742775 0.002073491457849741
4036400000.0 0.0019842202309519053 0.0021737876813858747
4036500000.0 0.001949390396475792 0.0019695896189659834
4036600000.0 0.002190933097153902 0.0015832057688385248
4036700000.0 0.0020598883274942636 0.0019159790826961398
4036800000.0 0.0026032838504761457 0.001630413462407887
4036900000.0 0.002643383340910077 0.001562153804115951
4037000000.0 0.0027453890070319176 0.0013473824365064502
4037100000.0 0.0026966629084199667 0.0012813899666070938
4037200000.0 0.002880031941458583 0.0011169256176799536
4037300000.0 0.0024633423890918493 0.0009225952089764178
4037400000.0 0.002703540027141571 0.0007373171392828226
4037500000.0 0.0026644663885235786 0.0004485839162953198
4037600000.0 0.0029595396481454372 0.0002045725705102086
4037700000.0 0.002618959406390786 0.00016379106091335416
4037800000.0 0.0030342976097017527 9.306851097790059e-06
4037900000.0 0.003035674337297678 5.89463634241838e-05
4038000000.0 0.0027649984695017338 2.517517532396596e-05
4038100000.0 0.0028007770888507366 -0.00047027115942910314
4038200000.0 0.002882811240851879 -0.0006444310420192778
4038300000.0 0.0029169651679694653 -0.0008128365152515471
4038400000.0 0.0024255344178527594 -0.0006917439750395715
4038500000.0 0.002917110687121749 -0.0009744309936650097
4038600000.0 0.0024517111014574766 -0.001026154961436987
4038700000.0 0.0023370287381112576 -0.001180776278488338
4038800000.0 0.0026712745893746614 -0.0014373515732586384
4038900000.0 0.002647378481924534 -0.001409664866514504
4039000000.0 0.0024472777731716633 -0.0014436596538871527
4039100000.0 0.0024358094669878483 -0.0018054320244118571
4039200000.0 0.00222739833407104 -0.0016030400292947888
4039300000.0 0.0018643017392605543 -0.0019758082926273346
4039400000.0 0.0022537908516824245 -0.002116147195920348
4039500000.0 0.0017944335704669356 -0.0023211834486573935
4039600000.0 0.0015916561242192984 -0.0021799341775476933
4039700000.0 0.001874071778729558 -0.0023570056073367596
4039800000.0 0.0013774815015494823 -0.002518454333767295
4039900000.0 0.001504802261479199 -0.0026380440685898066
4040000000.0 0.0014596350956708193 -0.0025013131089508533
4040100000.0 0.0013801275053992867 -0.0027831231709569693
4040200000.0 0.001216071774251759 -0.002773250686004758
4040300000.0 0.0007800477324053645 -0.002901386469602585
4040400000.0 0.0006242944509722292 -0.0030254621524363756
4040500000.0 0.0007423856295645237 -0.0029905561823397875
4040600000.0 0.000343087303917855 -0.0026322812773287296
4040700000.0 7.674457447137684e-05 -0.0028521877247840166
4040800000.0 0.00012464358587749302 -0.0026569825131446123
4040900000.0 8.95258563105017e-05 -0.0030824190471321344
4041000000.0 -0.00018554215785115957 -0.003078166861087084
4041100000.0 -9.009877248900011e-05 -0.0030040740966796875
4041200000.0 -0.0006332056364044547 -0.0027486467733979225
4041300000.0 -0.00040172250010073185 -0.0027005276642739773
4041400000.0 -0.0006590926786884665 -0.0024977303110063076
4041500000.0 -0.000988100771792233 -0.00255262921564281
4041600000.0 -0.0008881735848262906 -0.0028399548027664423
4041700000.0 -0.0010198109084740281 -0.002575606107711792
4041800000.0 -0.0011266340734437108 -0.002689641434699297
4041900000.0 -0.0015893805539235473 -0.0026379511691629887
4042000000.0 -0.0013622097903862596 -0.0025106549728661776
4042100000.0 -0.0018372443737462163 -0.0022387548815459013
4042200000.0 -0.001991179771721363 -0.0024048713967204094
4042300000.0 -0.0021809109020978212 -0.002114630304276943
4042400000.0 -0.0020795429591089487 -0.0018298731883987784
4042500000.0 -0.0019769039936363697 -0.0018252311274409294
4042600000.0 -0.0022525726817548275 -0.0016039316542446613
4042700000.0 -0.0025336854159832 -0.0018407389288768172
4042800000.0 -0.00231571844778955 -0.0014658494619652629
4042900000.0 -0.002328542061150074 -0.0014944860013201833
4043000000.0 -0.002814434003084898 -0.0011597085976973176
4043100000.0 -0.0028074372094124556 -0.0013727234909310937
4043200000.0 -0.0027047009207308292 -0.0012048184871673584
4043300000.0 -0.002634757896885276 -0.0009502770262770355
4043400000.0 -0.002186407567933202 -0.0005206911009736359
4043500000.0 -0.002749314298853278 -0.0004405964573379606
4043600000.0 -0.0027133494149893522 -0.0003390768251847476
4043700000.0 -0.0030184879433363676 -0.0005375412874855101
4043800000.0 -0.0028338884003460407 3.776595985982567e-05
4043900000.0 -0.002774882595986128 0.00016120495274662971
4044000000.0 -0.003150958800688386 0.00011051727051381022
4044100000.0 -0.0029503845144063234 0.00019108525884803385
4044200000.0 -0.0030777216888964176 0.0003779770340770483
4044300000.0 -0.002989549422636628 0.0008501394768245518
4044400000.0 -0.0027959514409303665 0.0010411470429971814
4044500000.0 -0.0028363880701363087 0.0007853413699194789
4044600000.0 -0.00289495219476521 0.001338379574008286
4044700000.0 -0.0027074175886809826 0.0010939048370346427
4044800000.0 -0.0027416388038545847 0.001623776275664568
4044900000.0 -0.002451610052958131 0.0017662730533629656
4045000000.0 -0.0023979945108294487 0.0015176287852227688
4045100000.0 -0.0023559043183922768 0.0017982837744057178
4045200000.0 -0.002420800970867276 0.001841037068516016
4045300000.0 -0.00202668784186244 0.0019683765713125467
4045400000.0 -0.002016989514231682 0.0020844682585448027
4045500000.0 -0.0019455667352303863 0.00252573867328465
4045600000.0 -0.001599484938196838 0.0025182233657687902
4045700000.0 -0.0014169695787131786 0.002652447670698166
4045800000.0 -0.001363290473818779 0.0027757245115935802
4045900000.0 -0.0013820934109389782 0.0029342398047447205
4046000000.0 -0.0010810832027345896 0.0030004980508238077
4046100000.0 -0.0007793132681399584 0.0030579932499676943
4046200000.0 -0.00075095787178725 0.00290216994471848
4046300000.0 -0.000851895718369633 0.002927083522081375
4046400000.0 -0.00037220586091279984 0.002972078276798129
4046500000.0 -0.0004165297723375261 0.002837520558387041
4046600000.0 -0.00033691988210193813 0.00293050822801888
4046700000.0 -5.9450080698297825e-06 0.003413452999666333
4046800000.0 0.00011286134395049885 0.0032801777124404907
4046900000.0 0.000556612794753164 0.0030524099711328745
4047000000.0 0.0007412173436023295 0.0030504863243550062
4047100000.0 0.0006929649389348924 0.0032112598419189453
4047200000.0 0.0008754860027693212 0.0032321035396307707
4047300000.0 0.0009448385681025684 0.003056018613278866
4047400000.0 0.0012219109339639544 0.0027771180029958487
4047500000.0 0.0011903408449143171 0.002898147562518716
4047600000.0 0.0016898452304303646 0.00257871113717556
4047700000.0 0.0018445862224325538 0.0027822949923574924
4047800000.0 0.0016719624400138855 0.0025829621590673923
4047900000.0 0.0018046590266749263 0.002485408913344145
4048000000.0 0.0020220756996423006 0.0021261866204440594
4048100000.0 0.0023148946929723024 0.001935624168254435
4048200000.0 0.002362780272960663 0.001818032586015761
4048300000.0 0.0023999116383492947 0.0016111675649881363
4048400000.0 0.0025646649301052094 0.001851346343755722
4048500000.0 0.002542051486670971 0.0015679101925343275
4048600000.0 0.002966968808323145 0.0015400247648358345
4048700000.0 0.002870069583877921 0.0013976781629025936
4048800000.0 0.0027654480654746294 0.0009635266033001244
4048900000.0 0.0028410213999450207 0.001018224167637527
4049000000.0 0.00289013609290123 0.00047940536751411855
4049100000.0 0.0029395176097750664 0.00029105678549967706
4049200000.0 0.0028524333611130714 0.000298379163723439
4049300000.0 0.0029526168946176767 -1.4016385648574214e-05
4049400000.0 0.002984001301229 -0.00024048678460530937
4049500000.0 0.003170073265209794 -0.0004299516149330884
4049600000.0 0.0027849855832755566 -0.0004169204621575773
4049700000.0 0.0030772278551012278 -0.0004665376909542829
4049800000.0 0.0028705764561891556 -0.0009865452302619815
4049900000.0 0.0030757631175220013 -0.0010454847943037748
4050000000.0 0.0028611901216208935 -0.0010042903013527393
4050100000.0 0.0024652075953781605 -0.0012080969754606485
4050200000.0 0.002365359105169773 -0.0012484868057072163
4050300000.0 0.0027439158875495195 -0.001587331062182784
4050400000.0 0.0020580857526510954 -0.0015685196267440915
4050500000.0 0.002121333498507738 -0.0017319623148068786
4050600000.0 0.0019158510258421302 -0.00202145054936409
4050700000.0 0.0022149672731757164 -0.002131575485691428
4050800000.0 0.0018731369636952877 -0.0023919737432152033
4050900000.0 0.0016741695581004024 -0.0020719273015856743
4051000000.0 0.0016537666087970138 -0.0025572963058948517
4051100000.0 0.0012582713970914483 -0.0022986808326095343
4051200000.0 0.001291960128583014 -0.002655527088791132
4051300000.0 0.0009581695194356143 -0.002714598085731268
4051400000.0 0.0007073502638377249 -0.0027243096847087145
4051500000.0 0.000563948939088732 -0.0025370263028889894
4051600000.0 0.000621540006250143 -0.002376585267484188
4051700000.0 0.000259491236647591 -0.0025076884776353836
4051800000.0 0.0005230263341218233 -0.002645349595695734
4051900000.0 -6.359141116263345e-05 -0.002651059301570058
4052000000.0 6.61621306790039e-05 -0.0027666392270475626
4052100000.0 -0.00013080547796562314 -0.002748634200543165
4052200000.0 -0.0004508440615609288 -0.002452538115903735
4052300000.0 -0.0006607851828448474 -0.0024504915345460176
4052400000.0 -0.0008173211826942861 -0.0025298120453953743
4052500000.0 -0.0008793044835329056 -0.002504439326003194
4052600000.0 -0.001038355054333806 -0.00220967223867774
4052700000.0 -0.0011126036988571286 -0.002056555123999715
4052800000.0 -0.0013690062332898378 -0.0023941986728459597
4052900000.0 -0.0011353689478710294 -0.0018949448131024837
4053000000.0 -0.0015268792631104589 -0.0019291718490421772
4053100000.0 -0.0012741952668875456 -0.0020623872987926006
4053200000.0 -0.0015141104813665152 -0.001912974868901074
4053300000.0 -0.001397276995703578 -0.001821935293264687
4053400000.0 -0.001790304551832378 -0.0013509734999388456
4053500000.0 -0.0016849117819219828 -0.0012423094594851136
4053600000.0 -0.0015829865587875247 -0.0014230941887944937
4053700000.0 -0.0016913196304813027 -0.0009682922973297536
4053800000.0 -0.0018013003282248974 -0.0008877654327079654
4053900000.0 -0.0017819206696003675 -0.0011702869087457657
4054000000.0 -0.001978314481675625 -0.0011113970540463924
4054100000.0 -0.0018117292784154415 -0.0005808143178001046
4054200000.0 -0.0021487988997250795 -0.0006790360203012824
4054300000.0 -0.0021432843059301376 -0.0005623407196253538
4054400000.0 -0.0014665565686300397 -0.0005688286037184298
4054500000.0 -0.0022009732201695442 -0.0003588379768189043
4054600000.0 -0.00189777254126966 5.91586394875776e-05
4054700000.0 -0.0016777940327301621 -1.6582243915763684e-05
4054800000.0 -0.0020647242199629545 -0.00011070308391936123
4054900000.0 -0.0016557729104533792 0.00014408335846383125
4055000000.0 -0.002101934514939785 0.000261080072959885
4055100000.0 -0.0016904330113902688 0.00018579621973913163
4055200000.0 -0.0016059341141954064 0.00024643694632686675
4055300000.0 -0.0017840159125626087 0.0007241048733703792
4055400000.0 -0.001888265018351376 0.0006541773909702897
4055500000.0 -0.0017592702060937881 0.0008377088233828545
4055600000.0 -0.0014177692355588078 0.0006178219337016344
4055700000.0 -0.0016453160205855966 0.0006266211275942624
4055800000.0 -0.0012815289665013552 0.0009808382019400597
4055900000.0 -0.0012412212090566754 0.0008256548899225891
4056000000.0 -0.0011185480980202556 0.0011028152657672763
4056100000.0 -0.0013292432995513082 0.001382263726554811
4056200000.0 -0.0011107163736596704 0.001285639824345708
4056300000.0 -0.0013328454224392772 0.0012633760925382376
4056400000.0 -0.0008883577538654208 0.0013948407722637057
4056500000.0 -0.0008698198944330215 0.001111119519919157
4056600000.0 -0.0008339465130120516 0.0010354124242439866
4056700000.0 -0.0006877276464365423 0.0015408158069476485
4056800000.0 -0.0006171247805468738 0.0014755449956282973
4056900000.0 -0.000771476305089891 0.0014912133337929845
4057000000.0 -0.0005934402579441667 0.0011612465605139732
4057100000.0 -0.00027524304459802806 0.0014356339816004038
4057200000.0 -0.0005922605050727725 0.001223525032401085
4057300000.0 -0.0001992218749364838 0.0014544662553817034
4057400000.0 -5.891176624572836e-05 0.0014054067432880402
4057500000.0 -9.197025065077469e-05 0.0011824567336589098
4057600000.0 8.391691517317668e-05 0.001175316283479333
4057700000.0 -0.0002729999250732362 0.0013610983733087778
4057800000.0 1.2630463288587634e-06 0.0011435487540438771
4057900000.0 -0.00012026192416669801 0.0014047514414414763
4058000000.0 0.00019797850109171122 0.0010623098351061344
4058100000.0 0.000350355840055272 0.0011680946918204427
4058200000.0 7.259674021042883e-05 0.0013648854801431298
4058300000.0 0.00014026451390236616 0.001316799665801227
4058400000.0 0.0005846537533216178 0.001071332604624331
4058500000.0 0.0003685160190798342 0.0013787010684609413
4058600000.0 0.0005989413475617766 0.0009464460308663547
4058700000.0 0.00031333501101471484 0.0008966310997493565
4058800000.0 0.0006660858634859324 0.0012413897784426808
4058900000.0 0.0005127137410454452 0.0008623982430435717
4059000000.0 0.0005683365161530674 0.0007658585091121495
4059100000.0 0.0006486730417236686 0.0011304665822535753
4059200000.0 0.0008115088567137718 0.0010709825437515974
4059300000.0 0.0007717126281931996 0.0006043786997906864
4059400000.0 0.0007023660582490265 0.0011086942395195365
4059500000.0 0.0009703308460302651 0.0008628276409581304
4059600000.0 0.0008284206269308925 0.0004610269097611308
4059700000.0 0.0006723676342517138 0.0005020966636948287
4059800000.0 0.0007219071267172694 0.0007215994410216808
4059900000.0 0.0010924887610599399 0.0006599804037250578
4060000000.0 0.0009093458065763116 0.00026338660973124206
4060100000.0 0.0011170223588123918 0.00037880029412917793
4060200000.0 0.0009494189289398491 0.0006166258244775236
4060300000.0 0.0007058279006741941 0.000372182548744604
4060400000.0 0.0010022756177932024 -0.00010262617433909327
4060500000.0 0.0011779278283938766 0.00010285869939252734
4060600000.0 0.0012196832103654742 0.00022568824351765215
4060700000.0 0.000721223943401128 0.00011093967623310164
4060800000.0 0.001145092537626624 0.0002583491732366383
4060900000.0 0.001128142117522657 -2.780720933515113e-05
4061000000.0 0.0007257722900249064 0.00014027317229192704
4061100000.0 0.0011165646137669683 0.00018163814092986286
4061200000.0 0.000809194054454565 -0.0003190198913216591
4061300000.0 0.0007041326607577503 -0.0001506645930930972
4061400000.0 0.0009448030614294112 -0.0004143978003412485
4061500000.0 0.0007319295546039939 -0.00036729968269355595
4061600000.0 0.0009418296976946294 -3.5506491258274764e-05
4061700000.0 0.0005862987600266933 -0.00012824934674426913
4061800000.0 0.0008735748124308884 -9.999279427574947e-05
4061900000.0 0.0009213523590005934 -0.00017049087909981608
4062000000.0 0.0006121118785813451 -0.0005503898137249053
4062100000.0 0.000377872318495065 -0.0005550836795009673
4062200000.0 0.0005427969736047089 -0.0005419625667855144
4062300000.0 0.0007859079632908106 -0.0002778040070552379
4062400000.0 0.0005665051867254078 -0.0007524426328018308
4062500000.0 0.0008435302297584713 -0.0005273651913739741
4062600000.0 0.0006854453822597861 -0.0007298993295989931
4062700000.0 0.0004540004301816225 -0.0006971500115469098
4062800000.0 0.0005392967141233385 -0.0008500721305608749
4062900000.0 0.0007461130735464394 -0.000630913651548326
4063000000.0 0.0003600777708925307 -0.0007190281176008284
4063100000.0 0.0007282274891622365 -0.00039633046253584325
4063200000.0 0.0003190291754435748 -0.00040412996895611286
4063300000.0 0.0005668573430739343 -0.0007893831352703273
4063400000.0 0.00042649341048672795 -0.00039644300704821944
4063500000.0 0.00031079459586180747 -0.0008621102897450328
4063600000.0 0.00010285324970027432 -0.0005424970877356827
4063700000.0 0.0004402344347909093 -0.0006326079019345343
4063800000.0 0.0003283934202045202 -0.0006317175575532019
4063900000.0 0.0003184109227731824 -0.0007843364146538079
4064000000.0 5.913790118938778e-06 -0.0008040458778850734
4064100000.0 -0.00015462381998077035 -0.0007564994157291949
4064200000.0 6.722492253175005e-05 -0.0009441186557523906
4064300000.0 -0.00012133090058341622 -0.0007833515992388129
4064400000.0 -0.0001461536157876253 -0.0007031017448753119
4064500000.0 9.645582758821547e-05 -0.00045830130693502724
4064600000.0 5.969986887066625e-06 -0.0008826520643197
4064700000.0 -0.0003875166876241565 -0.0007829066598787904
4064800000.0 9.096167923416942e-05 -0.0006529813399538398
4064900000.0 9.474842954659835e-05 -0.0006834424566477537
4065000000.0 -6.594188016606495e-05 -0.00037823221646249294
4065100000.0 -0.00016692634380888194 -0.0008249758975580335
4065200000.0 -0.00039693675353191793 -0.0007053183508105576
4065300000.0 -0.00043956952868029475 -0.0004432015703059733
4065400000.0 -0.00025156393530778587 -0.000316445657517761
4065500000.0 -7.878054748289287e-05 -0.0004277717671357095
4065600000.0 -0.0003193180018570274 -0.0003356396046001464
4065700000.0 -0.00040538248140364885 -0.00027556263376027346
4065800000.0 -0.0002293121797265485 -0.0006932021351531148
4065900000.0 -0.00042957800906151533 -0.00022614111367147416
4066000000.0 -0.0005011530593037605 -0.00031593439052812755
4066100000.0 -0.0004573374171741307 -0.000622915627900511
4066200000.0 -0.0006277860957197845 -0.00030880499980412424
4066300000.0 -0.0003773194912355393 -0.00013028716784901917
4066400000.0 -0.00014903265400789678 -0.00023470223823096603
4066500000.0 -0.0005843652179464698 -0.0005350790452212095
4066600000.0 -0.0007079201168380678 -0.000277914252365008
4066700000.0 -0.0006157713360153139 -8.353662997251377e-05
4066800000.0 -0.0006359326653182507 -0.0003736606740858406
4066900000.0 -0.0006272763712331653 -0.00040813020314089954
4067000000.0 -0.0006504041375592351 2.5816909328568727e-05
4067100000.0 -0.0005457818624563515 -0.00014994690718594939
4067200000.0 -0.000604902976192534 -2.6470663215150125e-05
4067300000.0 -0.00042608645162545145 5.424327537184581e-05
4067400000.0 -0.0007382142939604819 -0.00018655089661478996
4067500000.0 -0.0006412090733647346 -0.0002359169884584844
4067600000.0 -0.000568146351724863 -0.00031974149169400334
4067700000.0 -0.00041162045090459287 0.0001361649192404002
4067800000.0 -0.0002706192317418754 3.341459159855731e-05
4067900000.0 -0.0003342496638651937 0.0001787204819265753
4068000000.0 -0.0002905941510107368 5.111976497573778e-05
4068100000.0 -0.0007064632955007255 8.416104719799478e-06
4068200000.0 -0.000246538023930043 5.5463548051193357e-05
4068300000.0 -0.0004676058888435364 -0.00020959215180482715
4068400000.0 -0.0005778093473054469 -7.826897490303963e-05
4068500000.0 -0.000277940824162215 0.0001608052698429674
4068600000.0 -0.0006514715496450663 0.00033397559309378266
4068700000.0 -0.0004214094951748848 0.0003694443730637431
4068800000.0 -0.0006375171942636371 0.00028860525344498456
4068900000.0 -0.00015630140842404217 0.0001575127535033971
4069000000.0 -0.00024365879653487355 4.321697633713484e-05
4069100000.0 -0.0005400991067290306 0.0004918310442008078
4069200000.0 -0.00024050709907896817 5.361925286706537e-05
4069300000.0 -0.0003020908625330776 -5.0356971769360825e-05
4069400000.0 -0.00027077592676505446 2.5215431378455833e-05
4069500000.0 -0.0005083784926682711 0.00010273981024511158
4069600000.0 -0.00024150659737642854 0.0005347273545339704
4069700000.0 -0.0004993013571947813 0.00039645834476687014
4069800000.0 -0.00026309138047508895 0.0006159052136354148
4069900000.0 -0.0004822616174351424 0.0001906212855828926
4070000000.0 -0.000233929356909357 4.8943780711852014e-05
4070100000.0 -0.00012658599007409066 0.00017206506163347512
4070200000.0 -0.0004648775502573699 0.00043698531226255
4070300000.0 3.576216840883717e-05 0.00028634528280235827
4070400000.0 -0.00038909912109375 0.000696134811732918
4070500000.0 -0.00020424759713932872 0.000649794761557132
4070600000.0 -1.8964252376463264e-05 0.00023311279073823243
4070700000.0 -0.0004138528020121157 0.0004202430718578398
4070800000.0 -0.0003675989282783121 0.00040194328175857663
4070900000.0 -0.0004072566225659102 0.00044019188499078155
4071000000.0 -0.0003234522882848978 0.00045725435484200716
4071100000.0 -0.00026037884526886046 0.00022835462004877627
4071200000.0 -0.00017239822773262858 0.0006550759426318109
4071300000.0 -0.00010684654262149706 0.00016971450531855226
4071400000.0 0.00031886767828837037 0.0003837842377834022
4071500000.0 -0.0001707963674562052 0.00021265496616251767
4071600000.0 -6.913448305567726e-05 0.0005971294012852013
4071700000.0 0.00025171044399030507 0.0005037029040977359
4071800000.0 1.1538561921042856e-05 0.0001482292136643082
4071900000.0 0.00012657993647735566 0.0006651245057582855
4072000000.0 -0.0001543087710160762 0.0003540374746080488
4072100000.0 0.00026870446163229644 0.00029250126681290567
4072200000.0 0.00028122306684963405 0.0001818764430936426
4072300000.0 0.00026271247770637274 0.0002165028126910329
4072400000.0 -0.00018201956117991358 0.0003633731685113162
4072500000.0 0.00036481264396570623 0.0002918523387052119
4072600000.0 0.00032558254315517843 0.0005314829759299755
4072700000.0 0.0004036686150357127 0.0003937229048460722
4072800000.0 0.0003558041644282639 0.0004675578384194523
4072900000.0 -1.1491028999444097e-05 0.0002201233437517658
4073000000.0 -5.052221240475774e-05 0.00020108258468098938
4073100000.0 0.0003110776888206601 7.707891927566379e-05
4073200000.0 0.0004659583210013807 0.0002499937836546451
4073300000.0 5.7083103456534445e-05 8.772018918534741e-05
4073400000.0 3.992093479610048e-05 0.00013698081602342427
4073500000.0 0.0004381105536594987 7.739609281998128e-05
4073600000.0 0.0005063411081209779 0.0002751833526417613
4073700000.0 0.00028041511541232467 -5.972221333649941e-05
4073800000.0 2.3697608412476256e-05 6.992020644247532e-05
4073900000.0 0.00033716874895617366 0.0003891120431944728
4074000000.0 0.0003948565572500229 -9.99211915768683e-05
4074100000.0 0.00046811334323138 -4.6447730710497126e-05
4074200000.0 0.00033278376213274896 0.00038452193257398903
4074300000.0 0.00016930820129346102 0.000361630751285702
4074400000.0 0.00024281087098643184 0.0003577785100787878
4074500000.0 0.00039333608583547175 -0.00017162386211566627
4074600000.0 0.0004024060326628387 -0.0001585601712577045
4074700000.0 0.0004146983555983752 0.00025242302217520773
4074800000.0 0.0004226340679451823 1.2336854524619412e-05
4074900000.0 0.0005426622228696942 0.00016368857177440077
4075000000.0 0.0005352344014681876 -0.00016219544340856373
4075100000.0 0.00034237615182064474 -0.00019662047270685434
4075200000.0 0.00011407744023017585 6.631438009208068e-05
4075300000.0 0.00021532563550863415 0.00020096675143577158
4075400000.0 0.0005702560883946717 -1.2829372280975804e-05
4075500000.0 6.9842892116867e-05 -4.427235035109334e-05
4075600000.0 0.00045108917402103543 0.00017040596867445856
4075700000.0 0.00011567616456886753 0.00023132565547712147
4075800000.0 0.0004450074047781527 -0.0002989060594700277
4075900000.0 0.00024957291316241026 -0.0003238721692468971
4076000000.0 0.0002899374230764806 -0.0003722395922522992
4076100000.0 5.825117841595784e-05 -2.783241870929487e-05
4076200000.0 0.00012752927432302386 0.00013203866546973586
4076300000.0 0.0001766002387739718 9.099310409510508e-05
4076400000.0 0.0005728715332224965 9.433952800463885e-05
4076500000.0 0.0004934124299325049 -5.4190695664146915e-05
4076600000.0 2.0059635062352754e-05 -0.00020004673569928855
4076700000.0 1.3788101568934508e-05 9.727617907628883e-06
4076800000.0 0.00035015129833482206 -6.5610702222329564e-06
4076900000.0 0.0004141149402130395 -0.0002119998971465975
4077000000.0 0.00015820858243387192 9.70935434452258e-05
4077100000.0 0.00018441265274304897 0.00010616446525091305
4077200000.0 0.00031159413629211485 -3.106881558778696e-05
4077300000.0 0.00035899574868381023 -0.0003154889855068177
4077400000.0 -4.863090725848451e-05 -0.0002770329301711172
4077500000.0 0.00011415659537306055 5.2352344937389717e-05
4077600000.0 -0.00012096205318812281 -0.0002513670187909156
4077700000.0 0.0004290390061214566 -0.0003181908105034381
4077800000.0 7.431440462823957e-05 -9.503727778792381e-05
4077900000.0 -0.00014936065417714417 -0.0003534809220582247
4078000000.0 0.0001883319637272507 -3.5185883461963385e-05
4078100000.0 -3.5249555367045105e-05 -0.00037444394547492266
4078200000.0 -3.499506783555262e-05 -5.0491682486608624e-05
4078300000.0 3.094554631388746e-05 -0.000503580435179174
4078400000.0 -0.0001541421952424571 -0.0003108354867435992
4078500000.0 -9.551463881507516e-05 -0.0004654638469219208
4078600000.0 -5.881778270122595e-05 -0.0004642534477170557
4078700000.0 -2.2074662410886958e-05 5.9961064835079014e-05
4078800000.0 0.00011334443115629256 -0.00044844814692623913
4078900000.0 -8.704356150701642e-05 -4.2046413000207394e-05
4079000000.0 -0.00016990819131024182 -0.0004553509352263063
4079100000.0 0.0001938571804203093 -3.408490738365799e-05
4079200000.0 -0.00022426217037718743 -0.0003785885637626052
4079300000.0 -0.0002443043340463191 -0.0002872961340472102
4079400000.0 0.0001541544625069946 -0.00033167932997457683
4079500000.0 -0.000267303257714957 -0.00017699645832180977
4079600000.0 0.00014220192679204047 -5.0327613280387595e-05
4079700000.0 -0.00019317537953611463 -8.276996959466487e-05
4079800000.0 -0.0003177557373419404 -7.256223034346476e-05
4079900000.0 1.1995867680525407e-05 -0.00043255655327811837
4080000000.0 -0.00021272720186971128 -0.00043855325202457607
4080100000.0 -0.0002480417606420815 4.827684097108431e-05
4080200000.0 -3.103366179857403e-05 7.318574353121221e-05
4080300000.0 0.0001291677326662466 -0.00023019884247332811
4080400000.0 7.063752855174243e-05 -0.0003444739559199661
4080500000.0 2.7020510970032774e-05 -0.0002835531486198306
4080600000.0 -0.00038104975828900933 -6.863093585707247e-05
4080700000.0 -0.0003753915661945939 -0.00018539780285209417
4080800000.0 0.00021374243078753352 -9.941201278707013e-05
4080900000.0 -3.0354896807693876e-05 4.504934258875437e-05
4081000000.0 2.0944697098457254e-05 -0.00032697414280846715
4081100000.0 7.947076665004715e-05 -0.00029878702480345964
4081200000.0 -0.00033587031066417694 1.3397438124229666e-05
4081300000.0 4.8036650696303695e-05 -0.00017876073252409697
4081400000.0 -9.116523870034143e-05 -0.00030842050909996033
4081500000.0 -0.00026230665389448404 -0.0003566665982361883
4081600000.0 -0.0002890676259994507 -0.0003069976228289306
4081700000.0 -9.65487924986519e-06 5.217111720412504e-06
4081800000.0 -0.0005063667194917798 -4.610812175087631e-05
4081900000.0 -0.0001501755032222718 0.0001775109994923696
4082000000.0 -0.00016799720469862223 -0.00033223727950826287
4082100000.0 -5.465973663376644e-05 0.00011235153942834586
4082200000.0 -0.00034066272201016545 0.0001719576248433441
4082300000.0 -0.00042094828677363694 0.0001684231247054413
4082400000.0 -0.0005157802952453494 1.3384744761424372e-06
4082500000.0 0.00025943494983948767 5.162552770343609e-05
4082600000.0 3.592176653910428e-05 -5.036394577473402e-05
4082700000.0 -3.9479713450418785e-05 -5.295305163599551e-05
4082800000.0 -0.0003906572237610817 -0.00017192511586472392
4082900000.0 -0.00016097156913019717 -0.00019328377675265074
4083000000.0 -5.965692253084853e-05 -0.00012421092833392322
4083100000.0 -0.00029840916977263987 -0.0001659196859691292
4083200000.0 -0.00048311628052033484 0.00017053584451787174
4083300000.0 -9.19614321901463e-05 0.000240694876993075
4083400000.0 -0.0001900520728668198 -0.00018141760665457696
4083500000.0 -6.401678547263145e-05 0.00019619392696768045
4083600000.0 -0.0004394056450109929 0.00017527697491459548
4083700000.0 -0.00020886112179141492 0.00039147117058746517
4083800000.0 -0.000372535694623366 4.370745591586456e-05
4083900000.0 -0.0003609486448112875 -2.7919497370021418e-05
4084000000.0 -5.742735811509192e-05 -7.1323687734548e-05
4084100000.0 -0.0006784478900954127 0.0002793895546346903
4084200000.0 2.9803873985656537e-05 0.00017656295676715672
4084300000.0 4.7511886805295944e-05 0.00011498593812575564
4084400000.0 -0.0004025434027425945 -1.6012942069210112e-05
4084500000.0 -0.00026324999635107815 0.0004047500260639936
4084600000.0 6.401313294190913e-05 0.00017741903138812631
4084700000.0 2.903989479818847e-05 -5.7522294810041785e-05
4084800000.0 6.112189294071868e-05 0.00031311981729231775
4084900000.0 -0.00024051945365499705 0.0003842264413833618
4085000000.0 -0.00011987594189122319 0.00038280608714558184
4085100000.0 -0.0002981183642987162 -5.4241369070950896e-05
4085200000.0 -0.00030224790680222213 3.607821054174565e-05
4085300000.0 -0.0003337861271575093 3.9227918023243546e-05
4085400000.0 -0.0002700857585296035 8.881407120497897e-05
4085500000.0 0.0001076492335414514 0.0003343474818393588
4085600000.0 -0.00030653589055873454 3.828787521342747e-05
4085700000.0 -0.00016044695803429931 0.0004311984230298549
4085800000.0 -0.00024452887009829283 0.00021634637960232794
4085900000.0 -0.00028638847288675606 0.00018282674136571586
4086000000.0 -0.00017740856856107712 3.523976556607522e-05
4086100000.0 0.00019552350568119437 0.00038215680979192257
4086200000.0 0.00019554873870220035 0.00023695862910244614
4086300000.0 0.000203591727768071 0.0003243724349886179
4086400000.0 -0.00020864992984570563 5.9307931223884225e-05
4086500000.0 -0.000258914747973904 0.000383383478038013
4086600000.0 -0.00010186329745920375 -6.385784945450723e-05
4086700000.0 0.00020134547958150506 8.616983541287482e-05
4086800000.0 0.00015487770724575967 0.00042643400956876576
4086900000.0 0.00017866183770820498 0.0003882443124894053
4087000000.0 0.0001822628255467862 0.0004960146034136415
4087100000.0 -0.00011431932216510177 0.0003716717183124274
4087200000.0 0.00021933074458502233 0.00010510026913834736
4087300000.0 -0.00016989769937936217 0.00014048494631424546
4087400000.0 -0.0002780944050755352 -0.00017412817396689206
4087500000.0 0.0001138067091233097 0.0004074335447512567
4087600000.0 0.00030515040270984173 0.0003300669486634433
4087700000.0 0.0002879695384763181 0.00033234176225960255
4087800000.0 7.789163646521047e-05 2.0386638425407e-05
4087900000.0 6.520655006170273e-05 -4.056447505718097e-05
4088000000.0 7.766581256873906e-05 -6.593588477699086e-05
4088100000.0 -7.824890781193972e-05 2.1421778001240455e-05
4088200000.0 0.00015471647202502936 -0.00012833625078201294
4088300000.0 -7.747117342660204e-05 3.577593815862201e-05
4088400000.0 0.0004989113658666611 9.448090713704005e-05
4088500000.0 0.0003621766227297485 6.43470702925697e-05
4088600000.0 0.00032062368700280786 -5.572940790443681e-05
4088700000.0 -7.565263513242826e-05 5.36054685653653e-05
4088800000.0 -0.00010194310743827373 0.00018382228154223412
4088900000.0 -5.434922968561295e-06 0.00017420366930309683
4089000000.0 0.0002454754139762372 -0.0001125817361753434
4089100000.0 0.00028050041873939335 0.00041960255475714803
4089200000.0 -8.411380258621648e-05 2.231282996945083e-05
4089300000.0 -1.8814840586856008e-05 0.00015185640950221568
4089400000.0 6.451473018387333e-05 -9.200030035572127e-05
4089500000.0 -3.368987381691113e-05 -4.643988359021023e-05
4089600000.0 -8.743758371565491e-05 3.4552704164525494e-05
4089700000.0 0.0004627084417734295 -1.4302414456324186e-05
4089800000.0 0.00029507442377507687 0.0002333213051315397
4089900000.0 0.0004074854077771306 -0.00015090854139998555
4090000000.0 1.662176873651333e-05 -0.00017122176359407604
4090100000.0 -4.099037141713779e-06 -0.00010985528933815658
4090200000.0 0.0004310509539209306 -2.7002068236470222e-05
4090300000.0 -8.038731903070584e-05 -0.0001353743573417887
4090400000.0 2.1052626834716648e-05 6.793312059016898e-05
4090500000.0 0.00024640036281198263 0.00018078795983456075
4090600000.0 0.00044336856808513403 -7.844869833206758e-05
4090700000.0 0.00043580972123891115 5.457659062813036e-05
4090800000.0 0.00010704078886192292 -0.00022430732497014105
4090900000.0 0.000406667502829805 -0.00011713764251908287
4091000000.0 0.0004872464342042804 1.841997254814487e-05
4091100000.0 -3.987022500950843e-05 -0.00022371865634340793
4091200000.0 0.00014669324446003884 -0.00028962866053916514
4091300000.0 0.0004116625932510942 -0.00010522347292862833
4091400000.0 0.00028486247174441814 -0.0003350815095473081
4091500000.0 0.00038540895911864936 4.720465949503705e-05
4091600000.0 4.391904076328501e-05 0.00012011440412607044
4091700000.0 1.4254484995035455e-05 0.00011136581451864913
4091800000.0 0.0005906018195673823 7.788412767695263e-05
4091900000.0 0.0003457279526628554 -0.00010064909292850643
4092000000.0 0.00014409315190277994 -0.0003792776260524988
4092100000.0 0.00018098026339430362 -0.0003586689999792725
4092200000.0 -2.9742221158812754e-05 -3.276316783740185e-05
4092300000.0 -1.3816916180076078e-05 -0.0003319323586765677
4092400000.0 0.00030549001530744135 -4.296978295315057e-05
4092500000.0 2.863436566258315e-05 -0.00038515235064551234
4092600000.0 2.132117333530914e-05 -0.0004053502925671637
4092700000.0 -6.100517202867195e-05 -0.0002338202903047204
4092800000.0 -0.00010775678674690425 -0.0003718071093317121
4092900000.0 -0.00012623536167666316 -0.00028403548640199006
4093000000.0 0.00020809349371120334 1.8534350601839833e-05
4093100000.0 0.0002774657041300088 -0.0002648525114636868
4093200000.0 5.0497546908445656e-05 -0.0004147784784436226
4093300000.0 -7.164850103436038e-05 -3.276864663348533e-05
4093400000.0 0.0002085307496599853 -0.00028773819212801754
4093500000.0 0.0006011025980114937 -0.0004382621846161783
4093600000.0 0.00025979074416682124 -0.0001545111445011571
4093700000.0 -0.00016586194396950305 -0.0003009967040270567
4093800000.0 -0.00022672909835819155 -0.0002804345858749002
4093900000.0 4.423452992341481e-05 2.3844173483666964e-05
4094000000.0 0.00012544443598017097 -0.0003740193205885589
4094100000.0 0.0002620548475533724 -0.00025214185006916523
4094200000.0 -0.00012821036216337234 -0.000422879820689559
4094300000.0 0.0001304795005125925 -6.431001384044066e-05
4094400000.0 -0.00025753179215826094 -0.00010430691327201203
4094500000.0 -0.00017039297381415963 -0.0003999012697022408
4094600000.0 -0.0003072406689170748 -0.00033306650584563613
4094700000.0 -0.0002326427202206105 -5.7188466598745435e-05
4094800000.0 -0.0002116330579156056 -1.678186163189821e-05
4094900000.0 -0.00018654746236279607 -0.00029300557798705995
4095000000.0 0.00011657796130748466 -9.358586248708889e-05
4095100000.0 0.0002962661674246192 0.00011470251774881035
4095200000.0 -2.720478005358018e-05 -0.0004399384488351643
4095300000.0 0.0001501256338087842 -0.00030650413827970624
4095400000.0 -0.00036527900374494493 -0.0002446810540277511
4095500000.0 -6.126129392214352e-06 -0.00036817663931287825
4095600000.0 -0.00016181086539290845 -0.0003660980146378279
4095700000.0 -7.642035780008882e-05 -0.0004087356210220605
4095800000.0 -0.000324693217407912 8.752855501370504e-05
4095900000.0 6.742056575603783e-05 -0.00023640239669475704
4096000000.0 1.574454927322222e-06 -0.00028609036235138774
4096100000.0 -0.0003544633218552917 -0.000407513725804165
4096200000.0 -6.033836689312011e-05 -0.00036190127138979733
4096300000.0 -0.0004234823863953352 -0.00013672058412339538
4096400000.0 -0.00037385858013294637 -0.0003136145242024213
4096500000.0 -0.0003570851113181561 1.5441801224369556e-05
4096600000.0 -6.177241448312998e-05 -0.0002915117656812072
4096700000.0 -7.659416587557644e-05 0.00010950276191579178
4096800000.0 -0.00012205754319438711 -0.0002934549411293119
4096900000.0 -0.00034463012707419693 -0.00019935282762162387
4097000000.0 -8.729259570827708e-05 0.0001451285497751087
4097100000.0 -2.4718905478948727e-05 -0.00023040022642817348
4097200000.0 -0.0003671330341603607 -0.00020379629859235138
4097300000.0 -0.00018097966676577926 -0.0002739897172432393
4097400000.0 -0.00020753794524352998 -0.0002514356456231326
4097500000.0 -0.0003713064070325345 -6.044205656507984e-05
4097600000.0 -8.269976206065621e-06 0.0001546012208564207
4097700000.0 -0.00025394780095666647 0.00018006673781201243
4097800000.0 -0.00027409635367803276 -0.00016177214274648577
4097900000.0 -5.132875594426878e-05 0.00022788713977206498
4098000000.0 -8.507799793733284e-05 0.00022656474902760237
4098100000.0 -0.00036108188214711845 -4.410567271406762e-05
4098200000.0 1.01752102636965e-05 -4.860560147790238e-05
4098300000.0 -0.0003347793535795063 -4.8211801185971126e-05
4098400000.0 -7.682858995394781e-05 -0.00022671092301607132
4098500000.0 -0.00013627426233142614 -0.00015569652896374464
4098600000.0 -0.0002765269309747964 -4.569121665554121e-05
4098700000.0 -0.00026744644856080413 0.00020300483447499573
4098800000.0 -0.00036295285099186003 -1.233700731972931e-05
4098900000.0 -7.497965270886198e-05 0.00023803868680261075
4099000000.0 -0.0004038400074932724 5.2941031754016876e-05
4099100000.0 -0.00017399633361492306 0.00036179504240863025
4099200000.0 -0.00036572819226421416 0.0002153981477022171
4099300000.0 -5.194601908442564e-05 0.00032365883816964924
4099400000.0 2.8056922019459307e-05 5.6627173762535676e-05
4099500000.0 9.939792653312907e-05 0.000152029242599383
4099600000.0 -0.00031087867682799697 6.062453394406475e-05
4099700000.0 7.935580651974306e-05 0.00020687039068434387
4099800000.0 -3.515570278977975e-05 0.00036679639015346766
4099900000.0 -0.0003127339296042919 0.00019142573000863194
4100000000.0 -0.0003089160309173167 0.00019714389054570347
