! Created with skrf 1.10.0 (http://scikit-rf.org).
# Hz S RI R 50.0 
!freq ReS11 ImS11
!
4000000000.0 0.0011909161694347858 -0.00029383317450992763
4000100000.0 0.0011832388117909431 -0.0003493408439680934
4000200000.0 0.0007195188663899899 -0.0004730061045847833
4000300000.0 0.0009640519274398685 -0.0006217753398232162
4000400000.0 0.0010569528676569462 -0.00043690725578926504
4000500000.0 0.001038766815327108 -0.0005729981348849833
4000600000.0 0.0008196834241971374 -0.0007281473372131586
4000700000.0 0.0009173686848953366 -0.0007889900007285178
4000800000.0 0.0007666785386390984 -0.000814194732811302
4000900000.0 0.0008351647411473095 -0.0009924534242600203
4001000000.0 0.0007379130111075938 -0.0008294776198454201
4001100000.0 0.0004735838156193495 -0.000710449181497097
4001200000.0 0.0004962541861459613 -0.0005833297036588192
4001300000.0 0.0005179716390557587 -0.0006259559886530042
4001400000.0 0.0005791090079583228 -0.0009694921318441629
4001500000.0 0.0006771179032512009 -0.0007911880384199321
4001600000.0 0.00032255836413241923 -0.0007866611704230309
4001700000.0 0.0005707998643629253 -0.0009806087473407388
4001800000.0 0.00028718356043100357 -0.0007041045464575291
4001900000.0 0.0005468496237881482 -0.0008403751417063177
4002000000.0 8.176391565939412e-05 -0.0008924456196837127
4002100000.0 0.00036170901148580015 -0.0011227161157876253
4002200000.0 0.0002716740418691188 -0.0007841241313144565
4002300000.0 1.5948426153045148e-05 -0.001039111171849072
4002400000.0 0.00030956059345044196 -0.0011249377857893705
4002500000.0 0.00010929135896731168 -0.001496212906204164
4002600000.0 -0.00011597412958508357 -0.0009750723256729543
4002700000.0 -0.0001955567131517455 -0.001035583671182394
4002800000.0 0.0002068663452519104 -0.0009985886281356215
4002900000.0 -0.00010001381451729685 -0.001209008158184588
4003000000.0 -0.0001478029735153541 -0.0012128236703574657
4003100000.0 -0.0002941133570857346 -0.0007993400795385242
4003200000.0 1.5066418200149201e-05 -0.0009121039183810353
4003300000.0 -0.0004045482783112675 -0.001048815785907209
4003400000.0 -0.0001939359790412709 -0.001084356801584363
4003500000.0 -0.0003055789275094867 -0.000714906258508563
4003600000.0 -0.0005979022243991494 -0.0009277007193304598
4003700000.0 -0.00035098608350381255 -0.0007273444789461792
4003800000.0 -0.0004049836425110698 -0.0007240311242640018
4003900000.0 -0.0005848038708791137 -0.000996200367808342
4004000000.0 -0.000696555944159627 -0.0010063790250569582
4004100000.0 -0.0007552728056907654 -0.0007446045055985451
4004200000.0 -0.0004236482782289386 -0.0007272030925378203
4004300000.0 -0.00048372484161518514 -0.000889125803951174
4004400000.0 -0.0005777655751444399 -0.0009474629769101739
4004500000.0 -0.0007216389058157802 -0.000518044107593596
4004600000.0 -0.0005416050553321838 -0.0006866931216791272
4004700000.0 -0.0006817178800702095 -0.0008120941929519176
4004800000.0 -0.0008948635659180582 -0.0007654032087884843
4004900000.0 -0.0009862063452601433 -0.0004859757609665394
4005000000.0 -0.0007497307378798723 -0.0003377051616553217
4005100000.0 -0.0007147624273784459 -0.0002886044676415622
4005200000.0 -0.0010971599258482456 -0.00037173580494709313
4005300000.0 -0.001034852466545999 -0.0002550574135966599
4005400000.0 -0.0008552301442250609 -0.0004960743826813996
4005500000.0 -0.0007200276595540345 -0.00020065945864189416
4005600000.0 -0.0011120120761916041 -0.0003257632488384843
4005700000.0 -0.0008206433849409223 -0.00014019900118000805
4005800000.0 -0.0008391339797526598 1.102084388548974e-05
4005900000.0 -0.0009293960756622255 4.1559735109331086e-05
4006000000.0 -0.001160467159934342 -0.00019005066133104265
4006100000.0 -0.0008840300724841654 0.00012626158422790468
4006200000.0 -0.000920879771001637 0.00021150514658074826
4006300000.0 -0.001028865692205727 -0.0001542768586659804
4006400000.0 -0.001102565205655992 0.0002656932920217514
4006500000.0 -0.0012140295002609491 0.00018305453704670072
4006600000.0 -0.0008722034399397671 9.397532267030329e-05
4006700000.0 -0.0011023804545402527 9.85825972747989e-05
4006800000.0 -0.0010903029469773173 0.0002273855498060584
4006900000.0 -0.000834791746456176 0.0004646482120733708
4007000000.0 -0.0008814131724648178 0.0001921668299473822
4007100000.0 -0.0007279484998434782 0.00026757927844300866
4007200000.0 -0.0007153143524192274 0.000541633227840066
4007300000.0 -0.0007813723059371114 0.0003235955082345754
4007400000.0 -0.0007215393125079572 0.0004860971821472049
4007500000.0 -0.0007864579674787819 0.0008528243051841855
4007600000.0 -0.000907392124645412 0.0007937218178994954
4007700000.0 -0.0007181501132436097 0.00045776102342642844
4007800000.0 -0.000878751277923584 0.0008659160230308771
4007900000.0 -0.0005427805008366704 0.0008535044617019594
4008000000.0 -0.000502085720654577 0.0007037780596874654
4008100000.0 -0.0005789791466668248 0.0005861729732714593
4008200000.0 -0.0005858496879227459 0.0009619914344511926
4008300000.0 -0.0006940519670024514 0.0010080992942675948
4008400000.0 -0.0004604986170306802 0.0010038389591500163
4008500000.0 -0.0003306042344775051 0.0008481907425448298
4008600000.0 -0.0002856405917555094 0.0008938696701079607
4008700000.0 -0.0006338528473861516 0.0010809361701831222
4008800000.0 -0.00016936111205723137 0.0010329459328204393
4008900000.0 -0.0004546737764030695 0.0008114877273328602
4009000000.0 -0.000268243660684675 0.001158613245934248
4009100000.0 -0.00022299980628304183 0.0011817225022241473
4009200000.0 -0.0003023673198185861 0.0009643688099458814
4009300000.0 -0.00023813308507669717 0.0012456064578145742
4009400000.0 -0.0003267516440246254 0.001011551357805729
4009500000.0 6.119401223259047e-05 0.0012620703782886267
4009600000.0 -0.00011374634777894244 0.0009061227319762111
4009700000.0 -0.00023222134041134268 0.0010769098298624158
4009800000.0 5.7658493460621685e-05 0.0008456819341517985
4009900000.0 0.00022466744121629745 0.0008616559789516032
4010000000.0 0.0002536649990361184 0.0008804500685073435
4010100000.0 1.631622581044212e-05 0.000988935586065054
4010200000.0 0.0007040011696517467 0.0011797025799751282
4010300000.0 0.0004344664339441806 0.0011435227934271097
4010400000.0 0.00028344057500362396 0.0011648692889139056
4010500000.0 0.0002872715413104743 0.0007026629173196852
4010600000.0 0.0006542433984577656 0.0009163495269604027
4010700000.0 0.0003394154191482812 0.0008130052592605352
4010800000.0 0.0005898752715438604 0.001058915862813592
4010900000.0 0.0007039217161945999 0.0010931326542049646
4011000000.0 0.0005252464325167239 0.0009754527709446847
4011100000.0 0.0008138053817674518 0.0007483465597033501
4011200000.0 0.0004407256201375276 0.0007989212754182518
4011300000.0 0.000543711706995964 0.0007695253007113934
4011400000.0 0.0009157502790912986 0.000734666537027806
4011500000.0 0.0008140982245095074 0.0004935215692967176
4011600000.0 0.0007178769446909428 0.0005024320562370121
4011700000.0 0.0010639037936925888 0.000613575684837997
4011800000.0 0.0007314347894862294 0.000710003194399178
4011900000.0 0.0010909938719123602 0.000545367831364274
4012000000.0 0.0010967976413667202 0.0003715290513355285
4012100000.0 0.0010450371773913503 0.00028123712399974465
4012200000.0 0.0011315615847706795 0.00045499656698666513
4012300000.0 0.000889538845513016 0.0005917086382396519
4012400000.0 0.0011711062397807837 0.000222266826312989
4012500000.0 0.0009189319098368287 0.00026043198886327446
4012600000.0 0.0009743030532263219 8.258799061877653e-05
4012700000.0 0.0012936368584632874 0.00021359242964535952
4012800000.0 0.0013101306976750493 0.0002981680154334754
4012900000.0 0.0012649735435843468 3.9723101508570835e-05
4013000000.0 0.0012645357055589557 0.00016904693620745093
4013100000.0 0.0011934451758861542 -0.0001385204668622464
4013200000.0 0.0012618332402780652 -0.0001680103741819039
4013300000.0 0.0010329238139092922 -0.0002577667764853686
4013400000.0 0.0012822420103475451 -0.000200176757061854
4013500000.0 0.0006907415227033198 6.840921560069546e-05
4013600000.0 0.0012824170989915729 -0.00032318197190761566
4013700000.0 0.0009474959806539118 -0.00037470704410225153
4013800000.0 0.0010930753778666258 -0.0001623046409804374
4013900000.0 0.001051541417837143 -0.0002035294019151479
4014000000.0 0.001124733709730208 -0.00028136157197877765
4014100000.0 0.0012518363073468208 -0.0005253957351669669
4014200000.0 0.001092243823222816 -0.0007341114687733352
4014300000.0 0.001094384933821857 -0.0007756452541798353
4014400000.0 0.0010906282113865018 -0.0005192388198338449
4014500000.0 0.00075968710007146 -0.0006762805860489607
4014600000.0 0.0007682061986997724 -0.000889037677552551
4014700000.0 0.0008155381074175239 -0.0009395191445946693
4014800000.0 0.0007995825144462287 -0.0010075545869767666
4014900000.0 0.0008371390867978334 -0.0006649054703302681
4015000000.0 0.0009968648664653301 -0.0010120748775079846
4015100000.0 0.0005647491198033094 -0.00045447456068359315
4015200000.0 0.000772292900364846 -0.0008241746691055596
4015300000.0 0.000626424967776984 -0.0008103027939796448
4015400000.0 0.0006989550311118364 -0.0012112081749364734
4015500000.0 0.0006322652916423976 -0.0009102519834414124
4015600000.0 0.0007411218830384314 -0.001105533679947257
4015700000.0 0.0002715399314183742 -0.001223261933773756
4015800000.0 0.00033437341335229576 -0.0009126535151153803
4015900000.0 0.00018101319437846541 -0.001298479619435966
4016000000.0 0.0002592913224361837 -0.0013663532445207238
4016100000.0 4.283722228137776e-05 -0.0010539637878537178
4016200000.0 0.0003969402168877423 -0.0013035760493949056
4016300000.0 0.00028555377502925694 -0.0010473133297637105
4016400000.0 0.0001215765078086406 -0.00108083535451442
4016500000.0 0.00019206808065064251 -0.001307787257246673
4016600000.0 -7.322352030314505e-05 -0.0014342383947223425
4016700000.0 -0.00014289168757386506 -0.0014525530859827995
4016800000.0 4.241691840434214e-06 -0.0007451715064235032
4016900000.0 -1.086440806830069e-05 -0.001266881707124412
4017000000.0 -0.00042224180651828647 -0.0010917147155851126
4017100000.0 -0.0005361213115975261 -0.0012780643301084638
4017200000.0 -0.0002605891786515713 -0.0010285950265824795
4017300000.0 -0.0005790952127426863 -0.0013702844735234976
4017400000.0 -0.0005095785018056631 -0.0014438692014664412
4017500000.0 -0.0005009333253838122 -0.0014201399171724916
4017600000.0 -0.0007908085826784372 -0.0011133454972878098
4017700000.0 -0.0004688331391662359 -0.001156937680207193
4017800000.0 -0.0008671553223393857 -0.000970507855527103
4017900000.0 -0.0008609406650066376 -0.0009986184304580092
4018000000.0 -0.0010578565998002887 -0.0010749928187578917
4018100000.0 -0.000984403071925044 -0.0012044799514114857
4018200000.0 -0.0008709507528692484 -0.0008124340092763305
4018300000.0 -0.0011381470831111073 -0.0009271108428947628
4018400000.0 -0.0012523459736257792 -0.0009965678909793496
4018500000.0 -0.0010038538603112102 -0.0007624882273375988
4018600000.0 -0.0011522744316607714 -0.000610965071246028
4018700000.0 -0.00107620342168957 -0.0005666072829626501
4018800000.0 -0.0014001661911606789 -0.0007613657508045435
4018900000.0 -0.0011117174290120602 -0.0007582894759252667
4019000000.0 -0.0013379458105191588 -0.00045337167102843523
4019100000.0 -0.0011928242165595293 -0.0006860421854071319
4019200000.0 -0.001341722789220512 -0.00022343722230289131
4019300000.0 -0.0011993740918114781 -0.0004942910163663328
4019400000.0 -0.0016064989613369107 -0.00046707576257176697
4019500000.0 -0.0014698203885927796 -0.0002390927547821775
4019600000.0 -0.001398704363964498 -0.00044165350846014917
4019700000.0 -0.0016416566213592887 -3.561988705769181e-05
4019800000.0 -0.0013295554090291262 -6.7737782956101e-05
4019900000.0 -0.0015437096590176225 0.0001346320059383288
4020000000.0 -0.0015815625665709376 -0.00014348571130540222
4020100000.0 -0.0012281191302463412 0.00023406927357427776
4020200000.0 -0.0013995944755151868 4.3236206693109125e-05
4020300000.0 -0.0016054389998316765 0.0004576372739393264
4020400000.0 -0.0013853457057848573 0.0002788410347420722
4020500000.0 -0.0013265797169879079 0.000379022560082376
4020600000.0 -0.0016196008073166013 0.0004099983489140868
4020700000.0 -0.0016142528038471937 0.0003551423142198473
4020800000.0 -0.0016242308774963021 0.0005872033652849495
4020900000.0 -0.001270362176001072 0.0005415098275989294
4021000000.0 -0.0014810038264840841 0.0010067609837278724
4021100000.0 -0.0014840922085568309 0.0007395011489279568
4021200000.0 -0.001223345403559506 0.0010868124663829803
4021300000.0 -0.0014031765749678016 0.0011358612682670355
4021400000.0 -0.0014135884121060371 0.0010412796400487423
4021500000.0 -0.0012626823736354709 0.000917784112971276
4021600000.0 -0.0010848507517948747 0.0009673763997852802
4021700000.0 -0.0011012892937287688 0.0011032171314582229
4021800000.0 -0.0012570969993248582 0.0014735129661858082
4021900000.0 -0.0010961834341287613 0.0012844681041315198
4022000000.0 -0.0008372577140107751 0.0016602108953520656
4022100000.0 -0.001070500467903912 0.0015486079500988126
4022200000.0 -0.0005639123846776783 0.0015822630375623703
4022300000.0 -0.0005092600476928055 0.001583640929311514
4022400000.0 -0.0007607119041495025 0.001812995527870953
4022500000.0 -0.0006481671007350087 0.0018239677883684635
4022600000.0 -0.0006708473083563149 0.0017106456216424704
4022700000.0 -0.0002099915873259306 0.0016741654835641384
4022800000.0 -0.00021191225096117705 0.001896542264148593
4022900000.0 -0.00019909277034457773 0.0016122766537591815
4023000000.0 -0.0001019518167595379 0.0016272598877549171
4023100000.0 0.0001445416855858639 0.001812635106034577
4023200000.0 -0.00011493958299979568 0.0018093498656526208
4023300000.0 0.0002703315985854715 0.0017785457894206047
4023400000.0 8.682608313392848e-05 0.0019103247905150056
4023500000.0 0.0004377487930469215 0.0019887727685272694
4023600000.0 0.00046927217044867575 0.0016503152437508106
4023700000.0 0.0003174284938722849 0.0019255246734246612
4023800000.0 0.0005026751314289868 0.0016103978268802166
4023900000.0 0.0006605607341043651 0.0016222867416217923
4024000000.0 0.0005883670528419316 0.0018371364567428827
4024100000.0 0.0007827595109120011 0.0019228929886594415
4024200000.0 0.001035064458847046 0.00150884164031595
4024300000.0 0.0009261060040444136 0.001769744441844523
4024400000.0 0.0011871096212416887 0.0017596496036276221
4024500000.0 0.0010920783970505 0.001660871203057468
4024600000.0 0.0012273547472432256 0.0013037645258009434
4024700000.0 0.0012250249274075031 0.001439824583940208
4024800000.0 0.0015641748905181885 0.0015541653847321868
4024900000.0 0.0017941149417310953 0.0012869634665548801
4025000000.0 0.0018443609587848186 0.001300667179748416
4025100000.0 0.0018748220754787326 0.001393534941598773
4025200000.0 0.0020049901213496923 0.0010024970397353172
4025300000.0 0.0020907740108668804 0.0009641810902394354
4025400000.0 0.002134355716407299 0.0007809199742041528
4025500000.0 0.0017884866101667285 0.0008108553593046963
4025600000.0 0.001979880966246128 0.0004916251637041569
4025700000.0 0.0021503018215298653 0.0008469703607261181
4025800000.0 0.0019031109986826777 0.0005704107461497188
4025900000.0 0.002375186886638403 0.000338711601216346
4026000000.0 0.0022443104535341263 0.0004872883146163076
4026100000.0 0.0022612796165049076 6.472404493251815e-05
4026200000.0 0.0024051147047430277 8.718412573216483e-05
4026300000.0 0.002141839824616909 -0.00019994736067019403
4026400000.0 0.002373620867729187 -0.00033640608307905495
4026500000.0 0.002454724395647645 -0.00035364695941098034
4026600000.0 0.0023296703584492207 -0.0005713694263249636
4026700000.0 0.0020562857389450073 -0.0004453078145161271
4026800000.0 0.002339230850338936 -0.0008110859198495746
4026900000.0 0.0021696090698242188 -0.0006072242395021021
4027000000.0 0.0023919991217553616 -0.0009256584453396499
4027100000.0 0.0020181890577077866 -0.0008339289925061166
4027200000.0 0.0018863379955291748 -0.001283765654079616
4027300000.0 0.0022515268065035343 -0.0012579072499647737
4027400000.0 0.0018483175663277507 -0.0011987374164164066
4027500000.0 0.002040151972323656 -0.0016316426917910576
4027600000.0 0.0020088935270905495 -0.0015091735403984785
4027700000.0 0.0019182111136615276 -0.0017058817902579904
4027800000.0 0.0015633029397577047 -0.0017892124596983194
4027900000.0 0.0017146490281447768 -0.0018885498866438866
4028000000.0 0.001362500013783574 -0.0018494263058528304
4028100000.0 0.001568997511640191 -0.0019286435563117266
4028200000.0 0.0011696721194311976 -0.0020051489118486643
4028300000.0 0.0009128765086643398 -0.002189034130424261
4028400000.0 0.0011652200482785702 -0.002384340623393655
4028500000.0 0.0007207978633232415 -0.002535698004066944
4028600000.0 0.0008248523809015751 -0.0022599913645535707
4028700000.0 0.0007027263636700809 -0.002671448513865471
4028800000.0 0.0004973755567334592 -0.0022732496727257967
4028900000.0 0.00019444787176325917 -0.0024220363702625036
4029000000.0 0.0002476608206052333 -0.002784447278827429
4029100000.0 -0.00011896248179255053 -0.0026826756075024605
4029200000.0 0.0001464409870095551 -0.0026360852643847466
4029300000.0 -0.0003308367740828544 -0.0027535941917449236
4029400000.0 -0.0003220940416213125 -0.002422276185825467
4029500000.0 -0.0004407848755363375 -0.002650944050401449
4029600000.0 -0.0004944335669279099 -0.0025184883270412683
4029700000.0 -0.0007928129052743316 -0.002723050070926547
4029800000.0 -0.001051664468832314 -0.002502869116142392
4029900000.0 -0.0009625134407542646 -0.002687848173081875
4030000000.0 -0.0010195582872256637 -0.002297973493114114
4030100000.0 -0.001195148448459804 -0.002118992153555155
4030200000.0 -0.0016943450318649411 -0.0022519773337990046
4030300000.0 -0.0017367444233968854 -0.0022030940745025873
4030400000.0 -0.0015671334695070982 -0.0022566337138414383
4030500000.0 -0.0019184744451195002 -0.0022572611924260855
4030600000.0 -0.002120757009834051 -0.0021038579288870096
4030700000.0 -0.0020311938133090734 -0.0016176654025912285
4030800000.0 -0.0022915052250027657 -0.0019152492750436068
4030900000.0 -0.0020920359529554844 -0.0014897689688950777
4031000000.0 -0.0024355461355298758 -0.0016719541745260358
4031100000.0 -0.002417689887806773 -0.001156201004050672
4031200000.0 -0.0023666489869356155 -0.0010875276057049632
4031300000.0 -0.0027946862392127514 -0.0010850135004147887
4031400000.0 -0.0025746149476617575 -0.0007359172450378537
4031500000.0 -0.0027033023070544004 -0.0006178280455060303
4031600000.0 -0.00296931155025959 -0.0007812434923835099
4031700000.0 -0.0026950109750032425 -0.00029095960780978203
4031800000.0 -0.0027367447037249804 -0.00020066781144123524
4031900000.0 -0.00269201397895813 -5.872756810276769e-05
4032000000.0 -0.002784664975479245 0.0001305711775785312
4032100000.0 -0.0029835491441190243 -9.819233673624694e-05
4032200000.0 -0.0026610177010297775 0.0002986237232107669
4032300000.0 -0.0029724545311182737 0.0005710839759558439
4032400000.0 -0.002759423339739442 0.00038682465674355626
4032500000.0 -0.0028848357032984495 0.000581582251470536
4032600000.0 -0.0026666768826544285 0.0010525102261453867
4032700000.0 -0.0026982715353369713 0.0008434163173660636
4032800000.0 -0.0027318468783050776 0.001161705469712615
4032900000.0 -0.0024200710467994213 0.0013738652924075723
4033000000.0 -0.0026802020147442818 0.0013859751634299755
4033100000.0 -0.0024377088993787766 0.0018136100843548775
4033200000.0 -0.002199590438976884 0.0018793015042319894
4033300000.0 -0.0022053986322134733 0.0020657596178352833
4033400000.0 -0.0021172130946069956 0.0021573039703071117
4033500000.0 -0.002056850353255868 0.0022016919683665037
4033600000.0 -0.0019743149168789387 0.0019749512430280447
4033700000.0 -0.0019698988180607557 0.0023196684196591377
4033800000.0 -0.0017418788047507405 0.0025415688287466764
4033900000.0 -0.001684384886175394 0.0026009907014667988
4034000000.0 -0.0013829889940097928 0.0023444874677807093
4034100000.0 -0.0012912999372929335 0.002728631952777505
4034200000.0 -0.000941386679187417 0.002584906294941902
4034300000.0 -0.0010961676016449928 0.002569443080574274
4034400000.0 -0.0008845750126056373 0.002869975520297885
4034500000.0 -0.00048480473924428225 0.0029094149358570576
4034600000.0 -0.00047028352855704725 0.0026861270889639854
4034700000.0 -0.0004481356590986252 0.0030695381574332714
4034800000.0 -0.0003075225104112178 0.003046212950721383
4034900000.0 0.00012487608182709664 0.0027346541173756123
4035000000.0 -5.488324404723244e-06 0.0030395647045224905
4035100000.0 8.702965715201572e-05 0.0027274438180029392
4035200000.0 0.00026618290576152503 0.002948997775092721
4035300000.0 0.000488342484459281 0.002997912932187319
4035400000.0 0.0007448686519637704 0.0025949422270059586
4035500000.0 0.0010583325056359172 0.0027727673295885324
4035600000.0 0.0011304334038868546 0.002571039367467165
4035700000.0 0.0011952692875638604 0.0024321714881807566
4035800000.0 0.0015890077920630574 0.0025979618076235056
4035900000.0 0.0014067594893276691 0.0027103612665086985
4036000000.0 0.001647671335376799 0.0021939508151263
4036100000.0 0.0014947227900847793 0.002366991015151143
4036200000.0 0.0015975842252373695 0.0020727673545479774
4036300000.0 0.0019764096941798925 0.0019460205221548676
4036400000.0 0.0018039806745946407 0.0020479040686041117
4036500000.0 0.0019295199308544397 0.0018502589082345366
4036600000.0 0.0023540565744042397 0.001672689919359982
4036700000.0 0.0021492803934961557 0.0015213075093925
4036800000.0 0.002592802280560136 0.0014920856337994337
4036900000.0 0.002258815336972475 0.0014087497256696224
4037000000.0 0.002621019259095192 0.0014304365031421185
4037100000.0 0.0026237701531499624 0.0009748020675033331
4037200000.0 0.002824632218107581 0.0008618085994385183
4037300000.0 0.002908051712438464 0.0008813859894871712
4037400000.0 0.0026673355605453253 0.0004946539993397892
4037500000.0 0.0026166215538978577 0.0005076827364973724
4037600000.0 0.002727674786001444 0.0005853482871316373
4037700000.0 0.0026883732061833143 6.040723019395955e-05
4037800000.0 0.0028098453767597675 -4.11702276323922e-05
4037900000.0 0.0029988258611410856 0.00016054042498581111
4038000000.0 0.003034246386960149 -0.00020901308744214475
4038100000.0 0.0030103682074695826 -0.00014146244211588055
4038200000.0 0.002662154845893383 -0.000329477566992864
4038300000.0 0.0027232845313847065 -0.00040258644730784
4038400000.0 0.0029054542537778616 -0.0008714951109141111
4038500000.0 0.0025481556076556444 -0.0009916768176481128
4038600000.0 0.0024005284067243338 -0.0010214339708909392
4038700000.0 0.0026614656671881676 -0.0013555546756833792
4038800000.0 0.002444147365167737 -0.001594438566826284
4038900000.0 0.0024478978011757135 -0.0016764418687671423
4039000000.0 0.0023839734494686127 -0.0013480113120749593
4039100000.0 0.0022663346026092768 -0.0014268876984715462
4039200000.0 0.0023969176691025496 -0.0018609005492180586
4039300000.0 0.0022724352311342955 -0.0017740908078849316
4039400000.0 0.0020567800384014845 -0.001834970898926258
4039500000.0 0.0018837688257917762 -0.0018765334971249104
4039600000.0 0.0019336031982675195 -0.002376682823523879
4039700000.0 0.0014946082374081016 -0.002299897139891982
4039800000.0 0.0017197775887325406 -0.0022238546516746283
4039900000.0 0.0015385637525469065 -0.002622243482619524
4040000000.0 0.0011455847416073084 -0.0027233914006501436
4040100000.0 0.000995882786810398 -0.0024215991143137217
4040200000.0 0.0009206810500472784 -0.0025448466185480356
4040300000.0 0.0009651724831201136 -0.002888322342187166
4040400000.0 0.0005332962027750909 -0.002637726254761219
4040500000.0 0.000893463147804141 -0.002719316864386201
4040600000.0 0.000208519515581429 -0.002676103264093399
4040700000.0 8.168161002686247e-05 -0.0027816123329102993
4040800000.0 -9.616589522920549e-05 -0.0027606352232396603
4040900000.0 -9.263732499675825e-05 -0.0027484192978590727
4041000000.0 -0.00023752404376864433 -0.0030285706743597984
4041100000.0 -0.0005141206202097237 -0.0029466806445270777
4041200000.0 -0.0006752582849003375 -0.002678709803149104
4041300000.0 -0.0004393302369862795 -0.0029348109383136034
4041400000.0 -0.0009478780557401478 -0.0026727409567683935
4041500000.0 -0.0008609757060185075 -0.0028983764350414276
4041600000.0 -0.0010166201973333955 -0.002878983970731497
4041700000.0 -0.0012751048197969794 -0.0024271265137940645
4041800000.0 -0.001488530426286161 -0.00243807933293283
4041900000.0 -0.0012921392917633057 -0.002623090986162424
4042000000.0 -0.0017930713947862387 -0.0023719090968370438
4042100000.0 -0.002211247803643346 -0.0021644108928740025
4042200000.0 -0.0016621252289041877 -0.002346382476389408
4042300000.0 -0.001971734454855323 -0.0023367395624518394
4042400000.0 -0.002091220347210765 -0.0017761281924322248
4042500000.0 -0.0021178126335144043 -0.0020956224761903286
4042600000.0 -0.002103558974340558 -0.0018322683172300458
4042700000.0 -0.0022314104717224836 -0.001840786775574088
4042800000.0 -0.0025946865789592266 -0.0017706274520605803
4042900000.0 -0.0022997537162154913 -0.0013855620054528117
4043000000.0 -0.002454675966873765 -0.0013277478283271194
4043100000.0 -0.0024763448163866997 -0.001062917523086071
4043200000.0 -0.002880000276491046 -0.0008961327257566154
4043300000.0 -0.0029163795989006758 -0.0009798120008781552
4043400000.0 -0.002667624969035387 -0.0005081621347926557
4043500000.0 -0.0027055544778704643 -0.0006916868733242154
4043600000.0 -0.002965969732031226 -0.0006431128131225705
4043700000.0 -0.0029324269853532314 -0.0004484984965529293
4043800000.0 -0.002595930825918913 -0.00047552099567838013
4043900000.0 -0.0029322574846446514 -0.00012263200187589973
4044000000.0 -0.0030678007751703262 0.00042100579594261944
4044100000.0 -0.0030096936970949173 0.00020971187041141093
4044200000.0 -0.0031246559228748083 0.0005627827486023307
4044300000.0 -0.0030822069384157658 0.0004949462600052357
4044400000.0 -0.003030085004866123 0.0007789429510012269
4044500000.0 -0.0025916327722370625 0.0010244464501738548
4044600000.0 -0.0029290313832461834 0.0012594304280355573
4044700000.0 -0.002548615913838148 0.0013345087645575404
4044800000.0 -0.0025923552457243204 0.001186389708891511
4044900000.0 -0.0026984266005456448 0.00173503952100873
4045000000.0 -0.0026392601430416107 0.0018714588368311524
4045100000.0 -0.00214060815051198 0.00187842664308846
4045200000.0 -0.0022260257974267006 0.0018489176873117685
4045300000.0 -0.0020028117578476667 0.002299694577232003
4045400000.0 -0.0018721137894317508 0.0024481487926095724
4045500000.0 -0.0017515098443254828 0.0022823712788522243
4045600000.0 -0.0019705125596374273 0.0025729357730597258
4045700000.0 -0.0018502071034163237 0.0025024821516126394
4045800000.0 -0.0015642865328118205 0.0029178904369473457
4045900000.0 -0.001513547613285482 0.0028162796515971422
4046000000.0 -0.001390314195305109 0.0029475106857717037
4046100000.0 -0.0008012598264031112 0.003083514980971813
4046200000.0 -0.0006770070176571608 0.0030307897832244635
4046300000.0 -0.0008596534025855362 0.002948649227619171
4046400000.0 -0.0006851296056993306 0.0032242625020444393
4046500000.0 -0.00037351890932768583 0.0028984230011701584
4046600000.0 5.2997522288933396e-05 0.003237386466935277
4046700000.0 0.00017985889280680567 0.0032915391493588686
4046800000.0 0.00017535903316456825 0.0033233154099434614
4046900000.0 0.00048075889935716987 0.0032362709753215313
4047000000.0 0.0005159727297723293 0.0032855242025107145
4047100000.0 0.0007929474813863635 0.003079439280554652
4047200000.0 0.0009208378614857793 0.0027557939756661654
4047300000.0 0.0009184788214042783 0.0028962509240955114
4047400000.0 0.0013550942530855536 0.003044583834707737
4047500000.0 0.0013603540137410164 0.0030144706834107637
4047600000.0 0.0016632620245218277 0.0028863586485385895
4047700000.0 0.0017221972811967134 0.00239503919146955
4047800000.0 0.0019840041641145945 0.0025903701316565275
4047900000.0 0.0018205936066806316 0.002453953493386507
4048000000.0 0.002031055511906743 0.0024384830612689257
4048100000.0 0.0023026992566883564 0.0017952199559658766
4048200000.0 0.0022317671682685614 0.0020041619427502155
4048300000.0 0.002694641938433051 0.0019230549223721027
4048400000.0 0.002723666373640299 0.001440726569853723
4048500000.0 0.0025129318237304688 0.0014894689666107297
4048600000.0 0.0030059954151511192 0.0014241934986785054
4048700000.0 0.0027386504225432873 0.0009614359587430954
4048800000.0 0.0031001802999526262 0.0009710737504065037
4048900000.0 0.003118598833680153 0.000948325265198946
4049000000.0 0.0028438603039830923 0.0007765264017507434
4049100000.0 0.0032861516810953617 0.0002924072905443609
4049200000.0 0.0029043497052043676 0.00014581691357307136
4049300000.0 0.003263100516051054 0.00017191677761729807
4049400000.0 0.002851255238056183 -0.00011566457396838814
4049500000.0 0.002971112495288253 -0.00043105572694912553
4049600000.0 0.0029606479220092297 -0.0006504859775304794
4049700000.0 0.002820044057443738 -0.0005226476350799203
4049800000.0 0.0025426496285945177 -0.0009288975270465016
4049900000.0 0.0028844885528087616 -0.000768472149502486
4050000000.0 0.0027266554534435272 -0.0009245587280020118
4050100000.0 0.00253512104973197 -0.001500141341239214
4050200000.0 0.0024160631000995636 -0.0015423374716192484
4050300000.0 0.002466884208843112 -0.0017779190093278885
4050400000.0 0.0025413096882402897 -0.0017598822014406323
4050500000.0 0.0024271372240036726 -0.0018629861297085881
4050600000.0 0.0022896304726600647 -0.0018603133503347635
4050700000.0 0.0018932106904685497 -0.0022903750650584698
4050800000.0 0.0017024920089170337 -0.0023398452904075384
4050900000.0 0.0016924648080021143 -0.0025065524969249964
4051000000.0 0.00147168745752424 -0.002524401294067502
4051100000.0 0.0012911659432575107 -0.0022585622500628233
4051200000.0 0.0009475848637521267 -0.002544678281992674
4051300000.0 0.0012653202284127474 -0.002414456568658352
4051400000.0 0.0009675525943748653 -0.002397302072495222
4051500000.0 0.0008764566155150533 -0.002053147181868553
4051600000.0 0.0008073130738921463 -0.0025729285553097725
4051700000.0 0.00029222213197499514 -0.002838962944224477
4051800000.0 0.00044014593004249036 -0.002468873281031847
4051900000.0 0.00029332845588214695 -0.002743368037045002
4052000000.0 0.0001346572389593348 -0.0024475015234202147
4052100000.0 -0.00014851943706162274 -0.002778006950393319
4052200000.0 -0.00048643359332345426 -0.0023635183461010456
4052300000.0 -0.0005687772645615041 -0.0022941087372601032
4052400000.0 -0.00036032291245646775 -0.0024051957298070192
4052500000.0 -0.0009081980679184198 -0.0021772009786218405
4052600000.0 -0.0007138255750760436 -0.0023222656454890966
4052700000.0 -0.0010575797641649842 -0.0019695258233696222
4052800000.0 -0.0011467471485957503 -0.0023692003451287746
4052900000.0 -0.0013143968535587192 -0.002225062344223261
4053000000.0 -0.001358955749310553 -0.0017586839385330677
4053100000.0 -0.0012532522669062018 -0.0016132937744259834
4053200000.0 -0.0012599756009876728 -0.0016156116034835577
4053300000.0 -0.0017029506852850318 -0.001496011856943369
4053400000.0 -0.0018562495242804289 -0.0014648964861407876
4053500000.0 -0.001546428888104856 -0.0015682779485359788
4053600000.0 -0.0018903810996562243 -0.0011193095706403255
4053700000.0 -0.0020482856780290604 -0.001048381207510829
4053800000.0 -0.001840640208683908 -0.0013271346688270569
4053900000.0 -0.0019664173014461994 -0.001119068474508822
4054000000.0 -0.0021331578027457 -0.0009934349218383431
4054100000.0 -0.0017481654649600387 -0.0007988938014023006
4054200000.0 -0.002116614254191518 -0.0006631157593801618
4054300000.0 -0.0021439052652567625 -0.0007050565327517688
4054400000.0 -0.0018615064909681678 -0.0004625205183401704
4054500000.0 -0.002207729732617736 -0.000256950908806175
4054600000.0 -0.001847425359301269 -0.0003489068476483226
4054700000.0 -0.002146002370864153 -0.00014379741332959384
4054800000.0 -0.0020882030948996544 -9.736638457980007e-05
4054900000.0 -0.0020427112467586994 0.00025905578513629735
4055000000.0 -0.0020349700935184956 0.000455740955658257
4055100000.0 -0.0016315944958478212 0.00027417048113420606
4055200000.0 -0.0019045139197260141 0.0002488856262061745
4055300000.0 -0.0018470429349690676 0.0003291632456239313
4055400000.0 -0.0017711622640490532 0.00037410479853861034
4055500000.0 -0.0015212604776024818 0.0005389444995671511
4055600000.0 -0.001517586875706911 0.0009873199742287397
4055700000.0 -0.00144882220774889 0.0006439664866775274
4055800000.0 -0.0013525508111342788 0.0006522036273963749
4055900000.0 -0.0013766975607722998 0.0011386257829144597
4056000000.0 -0.0013441408518701792 0.0012751793256029487
4056100000.0 -0.0011711432598531246 0.0009007795015349984
4056200000.0 -0.001343799289315939 0.001253280439414084
4056300000.0 -0.0013174994383007288 0.0012267513666301966
4056400000.0 -0.001185468747280538 0.0013121641241014004
4056500000.0 -0.0008510207408107817 0.0011793422745540738
4056600000.0 -0.0010594058549031615 0.0014372040750458837
4056700000.0 -0.000972993962932378 0.0012220352655276656
4056800000.0 -0.0008380716317333281 0.001154267811216414
4056900000.0 -0.0008331582648679614 0.0013902198988944292
4057000000.0 -0.00038529778248630464 0.0013241838896647096
4057100000.0 -0.0007372062536887825 0.0014163750456646085
4057200000.0 -0.0005494810175150633 0.001543153077363968
4057300000.0 -0.00040651310700923204 0.0015892748488113284
4057400000.0 -0.00024713666061870754 0.0011854061158373952
4057500000.0 -0.00018150897813029587 0.0012553376145660877
4057600000.0 -0.0003038286231458187 0.001482267864048481
4057700000.0 -1.3396871509030461e-05 0.0015977587318047881
4057800000.0 -0.00015761500981170684 0.0012064914917573333
4057900000.0 0.0002868027950171381 0.0013921938370913267
4058000000.0 0.00037048207013867795 0.001465113484300673
4058100000.0 0.0002526231692172587 0.0013895040610805154
4058200000.0 0.00023821213108021766 0.0014481120742857456
4058300000.0 0.00025670710601843894 0.0010267122415825725
4058400000.0 0.0006237240741029382 0.0011746123200282454
4058500000.0 0.00038360271719284356 0.0009965746430680156
4058600000.0 0.00025643862318247557 0.0012026388430967927
4058700000.0 0.0002913989592343569 0.001057833549566567
4058800000.0 0.0004779528535436839 0.0009136101580224931
4058900000.0 0.0007339920848608017 0.0012353166239336133
4059000000.0 0.0005030474858358502 0.0010897108586505055
4059100000.0 0.0004683246079366654 0.0007283699815161526
4059200000.0 0.0009454229730181396 0.0008864218252710998
4059300000.0 0.0010138346115127206 0.0009320065728388727
4059400000.0 0.000545248098205775 0.000755741260945797
4059500000.0 0.0007269142079167068 0.0009248654823750257
4059600000.0 0.0007796724094077945 0.0009148045792244375
4059700000.0 0.0007467590039595962 0.0004540672234725207
4059800000.0 0.0009591822163201869 0.0007424078648909926
4059900000.0 0.0006684270338155329 0.0004405797808431089
4060000000.0 0.001037770533002913 0.0003427090123295784
4060100000.0 0.001075900625437498 0.0006018453859724104
4060200000.0 0.0008054160280153155 0.0001712987432256341
4060300000.0 0.0009412143263034523 0.00010461644706083462
4060400000.0 0.0011490817414596677 0.00013476588355842978
4060500000.0 0.0011153962695971131 0.00011606004409259185
4060600000.0 0.0007455939776264131 0.00011814659956144169
4060700000.0 0.0008153881644830108 0.0002719781477935612
4060800000.0 0.001071299659088254 0.00020104310533497483
4060900000.0 0.0008908982272259891 -0.00017228494107257575
4061000000.0 0.0010466075036674738 0.0002663253399077803
4061100000.0 0.0008543336298316717 -0.0002927247842308134
4061200000.0 0.0007147355354391038 5.550620335270651e-05
4061300000.0 0.0011101881973445415 2.3725797291263007e-05
4061400000.0 0.0007399072055704892 -0.0003181812644470483
4061500000.0 0.001131290104240179 -0.0003614180313888937
4061600000.0 0.001048597157932818 -0.00036314019234851
4061700000.0 0.0010895621962845325 -0.0003030284133274108
4061800000.0 0.0008070463081821799 -0.0006251398590393364
4061900000.0 0.0009554398711770773 -0.0005028491723351181
4062000000.0 0.0005967455799691379 -0.000592260854318738
4062100000.0 0.0009666909463703632 -0.0005717388121411204
4062200000.0 0.00094869319582358 -0.00048474842333234847
4062300000.0 0.0007363285403698683 -0.0002521517453715205
4062400000.0 0.0007832377450540662 -0.0006229794234968722
4062500000.0 0.0004362213658168912 -0.0009053453104570508
4062600000.0 0.0007917895563878119 -0.0005114988889545202
4062700000.0 0.0008374177268706262 -0.0005949395708739758
4062800000.0 0.0003257982025388628 -0.0005970604834146798
4062900000.0 0.0006114577990956604 -0.0005270529654808342
4063000000.0 0.0007186629809439182 -0.0005054285284131765
4063100000.0 0.0003496157005429268 -0.0007981016533449292
4063200000.0 0.0006062578177079558 -0.0006049387156963348
4063300000.0 0.0005729447584599257 -0.000672261870931834
4063400000.0 0.0005010805325582623 -0.0008385346154682338
4063500000.0 0.00043991717393510044 -0.0004982929676771164
4063600000.0 0.0004840124456677586 -0.0005650241510011256
4063700000.0 4.528596400632523e-05 -0.0009080508607439697
4063800000.0 0.00014150944480206817 -0.0009327849256806076
4063900000.0 0.00039417570224031806 -0.000550953031051904
4064000000.0 0.00025969292619265616 -0.0004318361170589924
4064100000.0 0.00037061673356220126 -0.0011639780132099986
4064200000.0 3.77978831238579e-05 -0.0008707286324352026
4064300000.0 -0.00023624944151379168 -0.0007453059661202133
4064400000.0 -3.643206582637504e-05 -0.00042477797251194715
4064500000.0 0.0001898862683447078 -0.00053481973009184
4064600000.0 0.0001021533171297051 -0.0008247639052569866
4064700000.0 -0.00014608021592721343 -0.00044182525016367435
4064800000.0 7.014348375378177e-05 -0.0008374271565116942
4064900000.0 6.335323269013315e-05 -0.0008012436446733773
4065000000.0 -0.00017602146544959396 -0.0008752926951274276
4065100000.0 -0.000403083540732041 -0.0005411853780969977
4065200000.0 -0.00019310131028760225 -0.0003994705912191421
4065300000.0 -1.7437747374060564e-05 -0.0006054560071788728
4065400000.0 -0.0002765596145763993 -0.0002994704991579056
4065500000.0 -0.00025535401073284447 -0.00033497653203085065
4065600000.0 -0.0001569213200127706 -0.0007251497590914369
4065700000.0 -0.00023901142412796617 -0.00031653812038712204
4065800000.0 -0.00022443650232162327 -0.0006835561362095177
4065900000.0 -0.0004307046183384955 -0.0007018952746875584
4066000000.0 -0.00018024301971308887 -0.0003165744710713625
4066100000.0 -0.00015794968931004405 -0.00023565214360132813
4066200000.0 -0.0005729598342441022 -0.0005623459001071751
4066300000.0 -0.00017273011326324195 -0.0002646006178110838
4066400000.0 -0.0006597400060854852 -0.00041125790448859334
4066500000.0 -0.0006619519554078579 -0.00044476010953076184
4066600000.0 -0.0002325442765140906 -0.00024311170272994787
4066700000.0 -0.0003159571788273752 -0.0001599220122443512
4066800000.0 -0.0004617695522028953 -0.0004803806368727237
4066900000.0 -0.0007082954398356378 -0.00018596484733279794
4067000000.0 -0.00036508741322904825 -4.722177982330322e-05
4067100000.0 -0.00032545768772251904 -4.848402750212699e-05
4067200000.0 -0.0005878580268472433 -0.000449962739367038
4067300000.0 -0.0006560716428793967 -2.6429064746480435e-05
4067400000.0 -0.00037134168087504804 -4.264134076947812e-06
4067500000.0 -0.0006098481244407594 -0.00025658932281658053
4067600000.0 -0.0007560793892480433 -9.845857857726514e-05
4067700000.0 -0.000468244164949283 0.0001987750583793968
4067800000.0 -0.0005938509129919112 0.0002445128920953721
4067900000.0 -0.00038110179593786597 -0.00016083975788205862
4068000000.0 -0.0006972458795644343 -8.760269702179357e-05
4068100000.0 -0.0006136028096079826 -0.0001248123444383964
4068200000.0 -0.0006251104059629142 -0.00015829679614398628
4068300000.0 -0.0005955157103016973 -0.00014742830535396934
4068400000.0 -0.0003477071295492351 -0.0001315222034463659
4068500000.0 -0.0006490164087153971 -0.0002903298009186983
4068600000.0 -0.0004415538569446653 0.00039459767867811024
4068700000.0 -0.0005197040154598653 -6.606934766750783e-05
4068800000.0 -0.0004819618188776076 0.0004256341198924929
4068900000.0 -0.0006067021749913692 0.00023712455003987998
4069000000.0 -0.00031010457314550877 -4.7080400690902025e-05
4069100000.0 -0.00040649782749824226 0.0004934677272103727
4069200000.0 -0.0006239705835469067 7.383272895822302e-05
4069300000.0 -0.00016102971858344972 0.00017502682749181986
4069400000.0 -0.0002643275074660778 4.043673834530637e-05
4069500000.0 -0.0002327026886632666 0.0005436998326331377
4069600000.0 -0.00029271660605445504 0.0005439301603473723
4069700000.0 -0.00015188805991783738 0.0004617722297552973
4069800000.0 -0.00045406873687170446 0.00039647583616897464
4069900000.0 -0.00038899085484445095 0.0005684962961822748
4070000000.0 -0.00011396818445064127 0.0001165517169283703
4070100000.0 -0.0001737822312861681 9.67034648056142e-05
4070200000.0 -0.00039541503065265715 0.00016191504255402833
4070300000.0 -0.0004356486024335027 0.00031432005926035345
4070400000.0 1.9960860299761407e-05 0.00020165079331491143
4070500000.0 -0.00043609904241748154 0.0002522359136492014
4070600000.0 -0.00036371828173287213 0.0002724312071222812
4070700000.0 -0.00033417015220038593 0.0005463372799567878
4070800000.0 -0.00031501505873166025 0.00013762460730504245
4070900000.0 0.00015099786105565727 0.00046029570512473583
4071000000.0 -8.044691639952362e-05 0.00019127315317746252
4071100000.0 -7.973160973051563e-05 0.0006139883771538734
4071200000.0 1.554634036438074e-05 0.0001383915077894926
4071300000.0 0.0001494149473728612 0.00034999390481971204
4071400000.0 0.000162044758326374 0.0005417977808974683
4071500000.0 0.0002318776969332248 0.0003634685417637229
4071600000.0 -0.00023491012689191848 0.0005165670299902558
4071700000.0 5.250422691460699e-05 0.00013034354196861386
4071800000.0 0.0006232332671061158 8.931221236707643e-05
4071900000.0 0.0002530370547901839 0.0005010197637602687
4072000000.0 -5.952574792900123e-05 0.0005701467744074762
4072100000.0 0.00022564781829714775 0.0006429388304241002
4072200000.0 0.00010276599641656503 0.0005926002631895244
4072300000.0 -0.00010676331294234842 0.0003863516612909734
4072400000.0 7.2457805799786e-05 0.00011879562953254208
4072500000.0 0.0003275778435636312 0.0004163084377069026
4072600000.0 -6.152055902930442e-06 0.0005501956911757588
4072700000.0 -1.5640896890545264e-05 0.0003857632109429687
4072800000.0 -0.00014510512119159102 0.00028979795752093196
4072900000.0 0.00024480256251990795 9.553031850373372e-05
4073000000.0 -6.349865725496784e-05 0.00037726739537902176
4073100000.0 0.00044703911407850683 0.0001489956193836406
4073200000.0 0.0003631061699707061 9.136499284068123e-05
4073300000.0 -1.8883034499594942e-05 0.00015595878357999027
4073400000.0 0.0004826807708013803 0.00022388558136299253
4073500000.0 0.00031685663270764053 -0.00025394046679139137
4073600000.0 8.320733286382165e-06 0.0001606976438779384
4073700000.0 0.00034267071168869734 1.4857577923521603e-07
4073800000.0 0.0005147195770405233 0.00013945736282039434
4073900000.0 0.0004837036249227822 0.00010589028534013778
4074000000.0 0.00022860910394228995 0.0004261892754584551
4074100000.0 6.115352152846754e-05 0.0002624899207148701
4074200000.0 0.00011700552568072453 0.0002933162613771856
4074300000.0 0.00011081834236392751 -2.0910561943310313e-05
4074400000.0 0.00010471981659065932 0.00026460870867595077
4074500000.0 0.0005663797492161393 0.0002450044557917863
4074600000.0 0.00011801229265984148 0.00019494185107760131
4074700000.0 0.0004136988427489996 -0.0001632416242500767
4074800000.0 0.0005801801453344524 6.794078944949433e-05
4074900000.0 0.00014931397163309157 0.00020022141688968986
4075000000.0 0.00046988416579551995 -0.00013731277431361377
4075100000.0 0.0004679043195210397 -0.00015314183838199824
4075200000.0 0.00022221765539143234 0.0004096919728908688
4075300000.0 0.0001368883968098089 0.00015174096915870905
4075400000.0 6.31969451205805e-05 9.130405373980466e-07
4075500000.0 0.0004584925773087889 -0.00023502459225710481
4075600000.0 0.00048730848357081413 0.00017969842883758247
4075700000.0 5.533455987460911e-05 6.509946979349479e-05
4075800000.0 8.667289512231946e-05 0.00013545378169510514
4075900000.0 0.000130172586068511 -0.0002463621203787625
4076000000.0 0.0004317652201279998 -0.00031673122430220246
4076100000.0 0.00048428590525873005 4.774426997755654e-05
4076200000.0 0.00022740212443750352 -0.0003050399827770889
4076300000.0 3.816128082689829e-05 -0.0003112033009529114
4076400000.0 0.000527967931702733 -7.059157360345125e-05
4076500000.0 6.149030377855524e-05 8.407402492593974e-05
4076600000.0 0.0004808601806871593 -0.00014774437295272946
4076700000.0 0.0005157471750862896 -0.0001670842175371945
4076800000.0 0.00040340182022191584 -0.00013914213923271745
4076900000.0 0.00012122576299589127 -1.0548542377364356e-05
4077000000.0 7.22146505722776e-05 2.995692011609208e-05
4077100000.0 3.596198803279549e-05 -0.0003469349758233875
4077200000.0 0.0002613784745335579 2.8537576781673124e-06
4077300000.0 0.0003275165508966893 -0.00038729296647943556
4077400000.0 7.032277608232107e-06 -1.6145999325090088e-05
4077500000.0 -7.737339183222502e-05 -8.432433241978288e-05
4077600000.0 0.00031686146394349635 -1.7558935724082403e-05
4077700000.0 0.00021194643341004848 -2.9362076020333916e-05
4077800000.0 0.0002366806147620082 -0.0005062211421318352
4077900000.0 0.0003124947543255985 -4.3530744733288884e-05
4078000000.0 -9.165632945951074e-05 -0.0003969991812482476
4078100000.0 -9.852054063230753e-05 -0.00026711259852163494
4078200000.0 -4.576132778311148e-05 -0.00042125378968194127
4078300000.0 -0.0001843046338763088 -0.0004088009591214359
4078400000.0 -0.00012766907457262278 -0.00030742326634936035
4078500000.0 0.0001968475989997387 -0.00028036528965458274
4078600000.0 -0.00018067705968860537 -0.00026749790413305163
4078700000.0 0.0003054572152905166 -0.0002244704228360206
4078800000.0 0.00021851850033272058 -6.46564076305367e-05
4078900000.0 -0.00021289775031618774 -0.00018396892119199038
4079000000.0 -2.902443338825833e-05 -3.269005901529454e-05
4079100000.0 -3.462546010268852e-05 -0.0004820646718144417
4079200000.0 0.00020942123956046999 -0.00023372822033707052
4079300000.0 0.0002232476108474657 -0.00032537520746700466
4079400000.0 2.3480992240365595e-05 -0.0004919584607705474
4079500000.0 8.504086144967005e-05 -2.0361729184514843e-05
4079600000.0 0.000147980113979429 -0.0004225241136737168
4079700000.0 -0.0003194642486050725 -0.0003478853905107826
4079800000.0 -0.00027276514447294176 -5.561261332331924e-06
4079900000.0 -0.00015690487634856254 -0.0004301646549720317
4080000000.0 0.00012148733367212117 -0.00019266964227426797
4080100000.0 -0.00030864463769830763 -0.000364815816283226
4080200000.0 -0.00019191009050700814 2.5633837140048854e-05
4080300000.0 -1.1993626685580239e-05 -0.0004464149824343622
4080400000.0 -7.35129215172492e-05 2.2364973119692877e-05
4080500000.0 -0.0001401298213750124 0.00015668172272853553
4080600000.0 -0.00033895729575306177 -0.00021189096150919795
4080700000.0 -0.00029288840596564114 -3.0645551305497065e-05
4080800000.0 9.204637171933427e-05 -0.0002966712636407465
4080900000.0 -3.926520366803743e-05 -0.00035755927092395723
4081000000.0 -9.956881513062399e-06 -0.00034244649577885866
4081100000.0 -0.00036489072954282165 -0.0002733769651968032
4081200000.0 0.0001622865383978933 0.00018085227929987013
4081300000.0 -0.00020631337247323245 0.0001461440697312355
4081400000.0 -0.00039569305954501033 -0.00010120683873537928
4081500000.0 -0.00022499621263705194 0.0001975182822206989
4081600000.0 -0.00033035839442163706 0.00011119796545244753
4081700000.0 -0.00014769323752261698 -0.0003701076493598521
4081800000.0 -0.0003891878586728126 8.36893668747507e-05
4081900000.0 1.624304240976926e-05 -0.00021857279352843761
4082000000.0 -0.0001231039350386709 0.00015748031728435308
4082100000.0 -0.00010646685404935852 0.00014034566993359476
4082200000.0 -0.00042073949589394033 -0.0003043380565941334
4082300000.0 -0.00038686252082698047 -0.0001939915237016976
4082400000.0 -0.00022537050244864076 -0.00029200108838267624
4082500000.0 -0.000362058897735551 -0.00023752298147883266
4082600000.0 -0.00046295530046336353 -0.0001473115262342617
4082700000.0 -0.00018866368918679655 -0.00023025130212772638
4082800000.0 -0.0004407812375575304 0.0005045706639066339
4082900000.0 -0.00041145511204376817 0.0001597598457010463
4083000000.0 -0.00047026685206219554 3.10299001284875e-05
4083100000.0 -0.00017156497051473707 -0.0002635406272020191
4083200000.0 -0.00020426195987965912 0.0002826910640578717
4083300000.0 -0.00037645280826836824 -0.00020794779993593693
4083400000.0 -0.00017495253996457905 -0.00016135534679051489
4083500000.0 -1.9330409486428834e-05 0.0001521639060229063
4083600000.0 1.4666493370896205e-05 3.085309072048403e-05
4083700000.0 -5.818610588903539e-05 -7.354013359872624e-05
4083800000.0 -0.00047102145617827773 0.0001611784246051684
4083900000.0 4.701336001744494e-05 6.288700387813151e-05
4084000000.0 -8.808961138129234e-05 -0.00011825597903225571
4084100000.0 -0.00030221862834878266 0.00037871531094424427
4084200000.0 -2.108162698277738e-05 0.0002284059883095324
4084300000.0 -0.00018535043636802584 -0.00015284513938240707
4084400000.0 -0.00015914680261630565 0.0003618024638853967
4084500000.0 -0.0006499597220681608 -1.7575448509887792e-05
4084600000.0 -0.0003408233169466257 9.140957990894094e-05
4084700000.0 -0.00034321946441195905 0.00020059559028595686
4084800000.0 -0.00030833526398055255 0.00034976692404598
4084900000.0 -0.0001421547931386158 -6.184758240124211e-05
4085000000.0 -6.406408647308126e-05 -5.833644172525965e-05
4085100000.0 -0.0003109342942479998 0.00034096327726729214
4085200000.0 -0.00037361207068897784 0.0001430426345905289
4085300000.0 -0.00016373985272366554 1.3885170119465329e-05
4085400000.0 -0.00033983582397922873 0.00013851757103111595
4085500000.0 -0.00010372762335464358 -7.544998516095802e-05
4085600000.0 0.00015489410725422204 0.0002979420532938093
4085700000.0 7.734559767413884e-05 -4.7403722419403493e-05
4085800000.0 -0.00020744327048305422 0.000489878177177161
4085900000.0 0.00015675376926083118 0.00022766135225538164
4086000000.0 -0.0002369668654864654 0.00031518496689386666
4086100000.0 0.0002316903555765748 0.00032740135793574154
4086200000.0 -0.0004326695925556123 0.0001388367236359045
4086300000.0 -0.00018925087351817638 5.726430390495807e-05
4086400000.0 -0.0002585983893368393 0.00011848136637127027
4086500000.0 0.000240137756918557 0.00014193794049788266
4086600000.0 -3.921856841770932e-05 -0.00012578543100971729
4086700000.0 0.00020030263112857938 2.2993681341176853e-05
4086800000.0 -0.00018025844474323094 0.00036062306025996804
4086900000.0 8.032488403841853e-05 9.276866330765188e-05
4087000000.0 0.0002046835725195706 4.6606895921286196e-05
4087100000.0 0.00019628886366263032 0.0004738034913316369
4087200000.0 1.966950367204845e-05 -6.437901902245358e-05
4087300000.0 -7.865769475756679e-06 -5.541593418456614e-05
4087400000.0 0.0002264983777422458 1.8475609977031127e-05
4087500000.0 -0.00012152638373663649 0.0002629749942570925
4087600000.0 -0.0002039027021965012 0.00021411154011730105
4087700000.0 0.00034908848465420306 0.0001283336168853566
4087800000.0 -4.2237210436724126e-05 -0.00015968077059369534
4087900000.0 0.00015362071280833334 -5.6481294450350106e-05
4088000000.0 0.00033423048444092274 0.00025532659492455423
4088100000.0 -8.921492735680658e-06 0.000393054389860481
4088200000.0 0.00029268188518472016 0.00025053235003724694
4088300000.0 0.0002822829701472074 0.00037981075001880527
4088400000.0 0.00018974729755427688 0.00038235096144489944
4088500000.0 -5.5379437981173396e-05 8.91458330443129e-05
4088600000.0 3.649495920399204e-05 -4.8303842049790546e-05
4088700000.0 6.605250382563099e-05 0.0003510580281727016
4088800000.0 0.0003629326238296926 -2.8443766495911404e-05
4088900000.0 0.00010432200360810384 0.0003649693971965462
4089000000.0 0.00013736099936068058 -0.0001333432155661285
4089100000.0 0.00023475335910916328 0.00037909974344074726
4089200000.0 0.0001430446864105761 0.00024354193010367453
4089300000.0 1.4473645023826975e-05 -4.790043749380857e-05
4089400000.0 0.00011230563541175798 -0.00014539205585606396
4089500000.0 0.0005250379326753318 -1.634433283470571e-05
4089600000.0 0.0003907718346454203 0.00023848495038691908
4089700000.0 -2.120263161486946e-05 7.228674076031893e-05
4089800000.0 0.0002461291151121259 0.000249350763624534
4089900000.0 2.268511707370635e-06 -4.073514719493687e-05
4090000000.0 6.411254435079172e-05 -0.000121344332001172
4090100000.0 0.00027709093410521746 -0.00020254321862012148
4090200000.0 0.00010119676881004125 0.0001803931809263304
4090300000.0 0.00014998303959146142 0.00025830691447481513
4090400000.0 0.0003073883126489818 0.00014990365889389068
4090500000.0 -0.00024656267487443984 6.553092680405825e-05
4090600000.0 0.00021468233899213374 -0.00019074806186836213
4090700000.0 0.00020029234292451292 -0.0002450525062158704
4090800000.0 0.00041459844214841723 -7.432778511429206e-05
4090900000.0 0.00023829712881706655 0.00014756120799575
4091000000.0 0.00039937617839314044 -0.00012299238005653024
4091100000.0 -2.0230677364452276e-06 -0.00024431038764305413
4091200000.0 0.000309892522636801 -0.00019660580437630415
4091300000.0 0.000379938050173223 -0.0001372682163491845
4091400000.0 7.056663162074983e-05 -0.00026910562883131206
4091500000.0 0.00011411662126192823 -0.0004101380764041096
4091600000.0 0.00021761989046353847 0.0001353200786979869
4091700000.0 -1.1528877621458378e-05 -0.00029711940442211926
4091800000.0 -3.155438753310591e-05 3.0126584533718415e-05
4091900000.0 -8.578699635108933e-05 -0.00014734842989128083
4092000000.0 0.0003567542298696935 -0.00019715772941708565
4092100000.0 0.00015928997891023755 0.00010253938671667129
4092200000.0 9.298876830143854e-05 -0.0002801736118271947
4092300000.0 -1.6060959751484916e-05 -6.336560909403488e-05
4092400000.0 0.0003478514845483005 -0.0001592178305145353
4092500000.0 -0.00010274323722114787 -0.00030327995773404837
4092600000.0 0.0002238154411315918 8.420413359999657e-05
4092700000.0 0.00011196704872418195 -0.0003943733172491193
4092800000.0 0.00020887806022074074 -2.158767165383324e-05
4092900000.0 0.00014011486200615764 9.444773604627699e-05
4093000000.0 0.0002568936615716666 -1.035373679769691e-05
4093100000.0 -6.400988786481321e-05 -0.00033378347870893776
4093200000.0 -1.4515092516376171e-05 -0.000504752213601023
4093300000.0 -3.155884041916579e-05 5.2086841606069356e-05
4093400000.0 0.00024372676853090525 -0.000148018792970106
4093500000.0 -0.00015073626127559692 -8.985934255179018e-05
4093600000.0 0.0001282856974285096 -6.53297029202804e-05
4093700000.0 0.00020604536985047162 -0.00012230774154886603
4093800000.0 0.0001445458474336192 -0.0003411758516449481
4093900000.0 0.0003767282178159803 -7.753940735710785e-05
4094000000.0 0.00026876601623371243 -0.00021560386812780052
4094100000.0 -0.0001264315942535177 -0.0003113687562290579
4094200000.0 -0.000251162942731753 -0.00012814998626708984
4094300000.0 0.0001297545968554914 -0.00035608073812909424
4094400000.0 -0.00023050176969263703 -0.00024445063900202513
4094500000.0 1.8508793800720014e-05 4.738581628771499e-05
4094600000.0 -0.0001214030635310337 3.465610643615946e-05
4094700000.0 0.00015117466682568192 -0.00030728353885933757
4094800000.0 -0.00030295009491965175 -0.0001748123613651842
4094900000.0 -0.0001347902143606916 5.330225030775182e-05
4095000000.0 9.258804493583739e-05 -7.646150334039703e-05
4095100000.0 -0.0002525573072489351 -0.0003759700048249215
4095200000.0 0.00010117710917256773 -0.0001736324338708073
4095300000.0 5.927362963120686e-06 -0.00042858807137236
4095400000.0 7.841781916795298e-05 -8.293848077300936e-05
4095500000.0 0.000215389984077774 2.7196236260351725e-05
4095600000.0 9.210847201757133e-05 -0.000138407718623057
4095700000.0 -0.0003206608525943011 -0.00029680159059353173
4095800000.0 5.025530845159665e-05 -0.0002698931493796408
4095900000.0 -0.0002018600789597258 -0.0002963216102216393
4096000000.0 -0.000250936602242291 9.37000077101402e-05
4096100000.0 1.1902630831173155e-05 -0.00022339624410960823
4096200000.0 3.574387665139511e-05 5.3122075769351795e-05
4096300000.0 -0.00030071413493715227 3.2145042496267706e-05
4096400000.0 -0.0003515440330374986 -0.00029815430752933025
4096500000.0 3.490383824100718e-05 -0.00016513344598934054
4096600000.0 -0.00022255993098951876 0.00011205770715605468
4096700000.0 3.6799472127313493e-06 -0.0001941728696692735
4096800000.0 5.731929195462726e-05 -9.502547618467361e-05
4096900000.0 -0.0001941983209690079 0.00016275055531878024
4097000000.0 -0.0003701941459439695 -7.83401628723368e-05
4097100000.0 -0.00013419592869468033 -0.00021750008454546332
4097200000.0 -6.891031080158427e-05 0.0003395916719455272
4097300000.0 -0.0002672475529834628 -0.0002104047453030944
4097400000.0 -0.0004102778621017933 8.248555968748406e-05
4097500000.0 -0.00012622916256077588 -0.0002635365817695856
4097600000.0 -0.00022819034347776324 -0.00015920615987852216
4097700000.0 2.2799968064646237e-05 9.714128100313246e-05
4097800000.0 -0.00010581834067124873 0.00023246531782206148
4097900000.0 -8.593181701144204e-05 -0.0001573178597027436
4098000000.0 -3.683154136524536e-05 0.00019882115884684026
4098100000.0 -0.00025933890719898045 -0.00012986593355890363
4098200000.0 9.571681584930047e-05 -0.00011813989112852141
4098300000.0 -0.00024150589888449758 0.0002582253946457058
4098400000.0 -0.00015353299386333674 0.00029606936732307076
4098500000.0 -0.00024301608209498227 -0.0002133438247255981
4098600000.0 -2.5057703169295564e-05 0.00015303303371183574
4098700000.0 8.931179763749242e-05 0.0001015690213534981
4098800000.0 -0.00014571075735148042 0.0002527335309423506
4098900000.0 -0.00029153714422136545 9.282973769586533e-05
4099000000.0 -0.0002965395397040993 -9.615260205464438e-05
4099100000.0 -0.00033001729752868414 -2.1737892893725075e-05
4099200000.0 -0.00010444370127515867 -0.0001155299978563562
4099300000.0 -0.000194911626749672 -6.790935003664345e-05
4099400000.0 -4.943493422615575e-06 -4.202947820886038e-05
4099500000.0 4.0004517359193414e-05 5.3266241593519226e-05
4099600000.0 8.450073801213875e-05 0.00022903192439116538
4099700000.0 -0.0003540973411872983 0.0002057423844235018
4099800000.0 -0.0001697879342827946 0.00035125011345371604
4099900000.0 -0.000175609762663953 0.0001449140254408121
4100000000.0 -6.757687515346333e-05 -5.193588731344789e-05
