! Created with skrf 1.10.0 (http://scikit-rf.org).
# Hz S RI R 50.0 
!freq ReS11 ImS11
!
4000000000.0 0.0011322038481011987 -0.00035537005169317126
4000100000.0 0.0011289766989648342 -0.0003446558548603207
4000200000.0 0.000801416696049273 -0.00018079215078614652
4000300000.0 0.0007681706920266151 -0.0006096184370107949
4000400000.0 0.0010993171017616987 -0.0004533542669378221
4000500000.0 0.0010190432658419013 -0.0004583497648127377
4000600000.0 0.0008439262164756656 -0.0007326086051762104
4000700000.0 0.0007204405847005546 -0.0007637476082891226
4000800000.0 0.0009611500427126884 -0.0007066829712130129
4000900000.0 0.000690818706061691 -0.0004885149537585676
4001000000.0 0.000818918866571039 -0.0008517935639247298
4001100000.0 0.0008251469698734581 -0.0008029286982491612
4001200000.0 0.0008443756960332394 -0.0008704632637090981
4001300000.0 0.0006386151071637869 -0.0006058297585695982
4001400000.0 0.0003825577150564641 -0.00078262371243909
4001500000.0 0.00042719149496406317 -0.0006760257529094815
4001600000.0 0.0006569419056177139 -0.0009754870552569628
4001700000.0 0.0005748756811954081 -0.0007608993328176439
4001800000.0 0.0003404367307666689 -0.0011274002026766539
4001900000.0 0.0003562889469321817 -0.0007377116708084941
4002000000.0 0.0004935614997521043 -0.0007997563225217164
4002100000.0 0.00011750432167900726 -0.0011459371307864785
4002200000.0 7.981945964274928e-05 -0.0011590061476454139
4002300000.0 0.0003897547139786184 -0.0009475499973632395
4002400000.0 0.0002973459486383945 -0.0008674521814100444
4002500000.0 -2.5371376978000626e-05 -0.0012845471501350403
4002600000.0 0.00015652040019631386 -0.0008425286505371332
4002700000.0 0.00019741042342502624 -0.0008053272031247616
4002800000.0 0.000146254213177599 -0.0011639505391940475
4002900000.0 -3.269010630901903e-05 -0.0008095427765510976
4003000000.0 -0.00020978692919015884 -0.0012089189840480685
4003100000.0 -0.0003303424746263772 -0.0008251986582763493
4003200000.0 -0.0001435708109056577 -0.0008135291282087564
4003300000.0 -0.0002100853598676622 -0.0011185662588104606
4003400000.0 -0.00023720735043752939 -0.0006882722373120487
4003500000.0 -0.00042386396671645343 -0.0010669988114386797
4003600000.0 -0.00028192484751343727 -0.001069282297976315
4003700000.0 -0.0006033510435372591 -0.0007708579651080072
4003800000.0 -0.00036379238008521497 -0.0007482240907847881
4003900000.0 -0.0005741714267060161 -0.0010625544236972928
4004000000.0 -0.000652406713925302 -0.0009660034556873143
4004100000.0 -0.0006148813990876079 -0.000705258222296834
4004200000.0 -0.0008496394148096442 -0.0007614536443725228
4004300000.0 -0.0005617344286292791 -0.000908511457964778
4004400000.0 -0.000534960359800607 -0.0005867162253707647
4004500000.0 -0.0008349844138137996 -0.0005373496096581221
4004600000.0 -0.0007866672240197659 -0.0008606113842688501
4004700000.0 -0.0006337407976388931 -0.00043412658851593733
4004800000.0 -0.0009757658699527383 -0.0006746958242729306
4004900000.0 -0.0008362277876585722 -0.0007309784414246678
4005000000.0 -0.0008701173937879503 -0.0007090145372785628
4005100000.0 -0.0010304708266630769 -0.0002823188260663301
4005200000.0 -0.0010580956004559994 -0.0003951036196667701
4005300000.0 -0.0010041851783171296 -0.00017449773440603167
4005400000.0 -0.0007330888765864074 -0.00035704500623978674
4005500000.0 -0.0008200518786907196 -0.00041996201616711915
4005600000.0 -0.0011008069850504398 -0.00031012800172902644
4005700000.0 -0.0008429182344116271 -0.00037040968891233206
4005800000.0 -0.0011426600394770503 8.771429565967992e-05
4005900000.0 -0.00079402542905882 -0.0001908091944642365
4006000000.0 -0.0008476958028040826 -0.0001998825027840212
4006100000.0 -0.0008113576914183795 3.2674022349965526e-06
4006200000.0 -0.0008376589394174516 -8.585738396504894e-05
4006300000.0 -0.0009247048292309046 -9.459428110858425e-05
4006400000.0 -0.000979103846475482 -0.00012719818914774805
4006500000.0 -0.0008839335641823709 3.961167385568842e-05
4006600000.0 -0.000840171123854816 4.028606053907424e-05
4006700000.0 -0.0008015747298486531 0.000317624508170411
4006800000.0 -0.001012445893138647 0.0005006456049159169
4006900000.0 -0.0010199383832514286 0.00011607789201661944
4007000000.0 -0.0011070312466472387 0.0005146648618392646
4007100000.0 -0.000842329696752131 0.00019931900897063315
4007200000.0 -0.0010535739129409194 0.0006303937407210469
4007300000.0 -0.0008655735291540623 0.0006858801934868097
4007400000.0 -0.0007874178700149059 0.00036470091436058283
4007500000.0 -0.0009140596375800669 0.0010375402634963393
4007600000.0 -0.0009962029289454222 0.0006506480276584625
4007700000.0 -0.0007595490314997733 0.0008447723230347037
4007800000.0 -0.0008530043414793909 0.0008912600460462272
4007900000.0 -0.000592144497204572 0.0005373312160372734
4008000000.0 -0.0006723877158947289 0.0009646695689298213
4008100000.0 -0.0004144097329117358 0.0008709714165888727
4008200000.0 -0.0009016578551381826 0.0008178979041986167
4008300000.0 -0.0007177965599112213 0.0008215068955905735
4008400000.0 -0.0006537670851685107 0.0009641828364692628
4008500000.0 -0.000465989054646343 0.0010580712696537375
4008600000.0 -0.0004534021718427539 0.0010939203202724457
4008700000.0 -0.000493892643135041 0.001114164013415575
4008800000.0 -0.0004440520715434104 0.0007674719672650099
4008900000.0 -0.00037985690869390965 0.0007420346955768764
4009000000.0 -0.0004254166560713202 0.0010527096455916762
4009100000.0 -3.26325352943968e-05 0.000998712028376758
4009200000.0 -0.0005064553115516901 0.0011441174428910017
4009300000.0 -0.0002594750258140266 0.0008699699537828565
4009400000.0 6.743010453647003e-05 0.0011576494434848428
4009500000.0 -0.0002908039896283299 0.0011304374784231186
4009600000.0 -0.00017457868671044707 0.0011433829786255956
4009700000.0 -0.00015366454317700118 0.0008868651930242777
4009800000.0 0.0002531729405745864 0.001076385728083551
4009900000.0 7.82845017965883e-05 0.0011837007477879524
4010000000.0 0.00011226758942939341 0.0012056913692504168
4010100000.0 0.00013745177420787513 0.0011307292152196169
4010200000.0 -1.81853465619497e-06 0.0009795025689527392
4010300000.0 0.0002809465513564646 0.0008209421066567302
4010400000.0 0.0003088811063207686 0.000756975554395467
4010500000.0 0.00020902846881654114 0.0008179978467524052
4010600000.0 0.0004366921784821898 0.0007969250436872244
4010700000.0 0.000329312082612887 0.00103776715695858
4010800000.0 0.00038798150490038097 0.001038113608956337
4010900000.0 0.0003173265722580254 0.0008179001160897315
4011000000.0 0.0004277188563719392 0.0009712880710139871
4011100000.0 0.0006182757788337767 0.0010446272790431976
4011200000.0 0.0007290492649190128 0.0006094714044593275
4011300000.0 0.0007517963531427085 0.0005896994262002409
4011400000.0 0.0007185728172771633 0.0009440586436539888
4011500000.0 0.0006837659748271108 0.000526902440469712
4011600000.0 0.0007896593888290226 0.0004965048283338547
4011700000.0 0.0006327006849460304 0.0006541674956679344
4011800000.0 0.0008842595852911472 0.0004437545139808208
4011900000.0 0.0008303989889100194 0.0007050395361147821
4012000000.0 0.0007964689284563065 0.00033650334808044136
4012100000.0 0.0011471497127786279 0.00041811089613474905
4012200000.0 0.0009509622468613088 0.00022457576415035874
4012300000.0 0.0011980478884652257 0.0002490293700248003
4012400000.0 0.0009760368266142905 0.00016637961380183697
4012500000.0 0.0012147751403972507 0.0003658743225969374
4012600000.0 0.0012137360172346234 0.00016125563706737012
4012700000.0 0.0009126304066739976 0.0002645948843564838
4012800000.0 0.0011578433914110065 0.0003316036018077284
4012900000.0 0.0013000870821997523 0.00011015085328835994
4013000000.0 0.000890614406671375 3.9670376281719655e-05
4013100000.0 0.0012422516010701656 0.0002193333930335939
4013200000.0 0.0009943140903487802 -0.00019003523630090058
4013300000.0 0.001088204444386065 0.00013040287012699991
4013400000.0 0.0011677158763632178 2.3251381207956e-05
4013500000.0 0.0013796155108138919 -0.00012735238124150783
4013600000.0 0.0013194764032959938 -0.0001534810580778867
4013700000.0 0.0011445659911260009 -0.0005220445455051959
4013800000.0 0.0012427389156073332 -0.0002462788834236562
4013900000.0 0.0012000207789242268 -0.0005736721795983613
4014000000.0 0.0011629308573901653 -0.0005870768800377846
4014100000.0 0.0012407131725922227 -0.00028472341364249587
4014200000.0 0.0009436504915356636 -0.0007378379814326763
4014300000.0 0.0010545108234509826 -0.0007749880896881223
4014400000.0 0.0011570114875212312 -0.0005790619761683047
4014500000.0 0.0010993585456162691 -0.0007283864542841911
4014600000.0 0.0011087433667853475 -0.000784348463639617
4014700000.0 0.000721070624422282 -0.0006639022030867636
4014800000.0 0.0006691575981676579 -0.0007777963764965534
4014900000.0 0.0008334752637892962 -0.0006450482760556042
4015000000.0 0.000560340762604028 -0.0009136691223829985
4015100000.0 0.0007975846529006958 -0.0009730356396175921
4015200000.0 0.0005143723683431745 -0.0010634810896590352
4015300000.0 0.0008466944564133883 -0.0009537627920508385
4015400000.0 0.0003961326146963984 -0.0010240452829748392
4015500000.0 0.000681536563206464 -0.0012018928537145257
4015600000.0 0.0006932890973985195 -0.0010282413568347692
4015700000.0 0.0006199682829901576 -0.0010028514079749584
4015800000.0 0.0006509709055535495 -0.0011016414500772953
4015900000.0 0.0005846230196766555 -0.0010999437654390931
4016000000.0 0.00024886830942705274 -0.0013422798365354538
4016100000.0 0.00020494611817412078 -0.0014204266481101513
4016200000.0 8.817435445962474e-05 -0.0013951418222859502
4016300000.0 0.00032358887256123126 -0.00117077911272645
4016400000.0 0.0002998629061039537 -0.0012091812677681446
4016500000.0 -0.00012118098675273359 -0.0012896072585135698
4016600000.0 0.00013921789650339633 -0.0014195621479302645
4016700000.0 -7.769339572405443e-05 -0.0014846493722870946
4016800000.0 -0.00032650690991431475 -0.001232433132827282
4016900000.0 -0.00019515262101776898 -0.00144577631726861
4017000000.0 -0.00013661030970979482 -0.0014450029702857137
4017100000.0 -0.0004536966443993151 -0.0010602518450468779
4017200000.0 -0.0005734206060878932 -0.0012652254663407803
4017300000.0 -0.000640774262137711 -0.0013162961695343256
4017400000.0 -0.0003458394203335047 -0.0011878658551722765
4017500000.0 -0.00055166200036183 -0.0013984405668452382
4017600000.0 -0.00038558212690986693 -0.0012350085889920592
4017700000.0 -0.0008371529984287918 -0.001081808004528284
4017800000.0 -0.0010455930605530739 -0.001186184585094452
4017900000.0 -0.0009449145291000605 -0.0012402525171637535
4018000000.0 -0.0007305543404072523 -0.0009013545932248235
4018100000.0 -0.0009039017022587359 -0.0008080428815446794
4018200000.0 -0.0010867177043110132 -0.0008688379311934114
4018300000.0 -0.0007798006408847868 -0.000964309845585376
4018400000.0 -0.0008318182663060725 -0.0008004940464161336
4018500000.0 -0.0012056105770170689 -0.0006346477312035859
4018600000.0 -0.0009791824268177152 -0.0007159446831792593
4018700000.0 -0.0011528258910402656 -0.0006001119036227465
4018800000.0 -0.0014567201724275947 -0.0006103116320446134
4018900000.0 -0.0014814760070294142 -0.000683875463437289
4019000000.0 -0.0014625806361436844 -0.0008185149054042995
4019100000.0 -0.0011849526781588793 -0.0006678477511741221
4019200000.0 -0.0015402636490762234 -0.0006252710008993745
4019300000.0 -0.0014926950680091977 -0.00023857584164943546
4019400000.0 -0.0014116483507677913 -0.00016216405492741615
4019500000.0 -0.0016858496237546206 -0.000282388849882409
4019600000.0 -0.001519246376119554 -0.00042423733975738287
4019700000.0 -0.0015562146436423063 -0.00034990019048564136
4019800000.0 -0.0014118683757260442 0.00011089524195995182
4019900000.0 -0.0014545770827680826 -0.0002042958658421412
4020000000.0 -0.0016456451267004013 -4.3029671360272914e-05
4020100000.0 -0.0013806172646582127 -3.2057505450211465e-05
4020200000.0 -0.001335402950644493 0.00011941129196202382
4020300000.0 -0.0015354824718087912 8.694929420016706e-05
4020400000.0 -0.0012270696461200714 0.00026987746241502464
4020500000.0 -0.0014972330536693335 0.0002120322606060654
4020600000.0 -0.0016993051394820213 0.0005668353987857699
4020700000.0 -0.0016684180591255426 0.0005130567005835474
4020800000.0 -0.001631926279515028 0.0005405504489317536
4020900000.0 -0.0016615461790934205 0.0007326403283514082
4021000000.0 -0.0013160695089027286 0.0006131064146757126
4021100000.0 -0.001241861144080758 0.0011552328942343593
4021200000.0 -0.0011305796215310693 0.000906601024325937
4021300000.0 -0.0011350811691954732 0.0011013797484338284
4021400000.0 -0.0010931717697530985 0.0009637819603085518
4021500000.0 -0.0011097186943516135 0.001287112943828106
4021600000.0 -0.0013692575739696622 0.0011501932749524713
4021700000.0 -0.0010395926656201482 0.0010793349938467145
4021800000.0 -0.0010160706005990505 0.0013135138433426619
4021900000.0 -0.0010695481905713677 0.0011891848407685757
4022000000.0 -0.0010577801149338484 0.0015823757275938988
4022100000.0 -0.0008620554581284523 0.0012403004802763462
4022200000.0 -0.000666148669552058 0.0017018381040543318
4022300000.0 -0.0008924819412641227 0.0016845710342749953
4022400000.0 -0.0007392633706331253 0.001816698000766337
4022500000.0 -0.000380782934371382 0.0014890490565449
4022600000.0 -0.0005137375555932522 0.001519415178336203
4022700000.0 -0.000557682360522449 0.0016376973362639546
4022800000.0 -0.0004139904340263456 0.001539720455184579
4022900000.0 -0.0004463828227017075 0.00184623955283314
4023000000.0 6.432765803765506e-05 0.0018314874032512307
4023100000.0 0.00013531955482903868 0.0016935092862695456
4023200000.0 0.00013306485197972506 0.001983450725674629
4023300000.0 0.0002482626005075872 0.0017328480025753379
4023400000.0 4.534246909315698e-05 0.001701595727354288
4023500000.0 0.00041300125303678215 0.0018210562411695719
4023600000.0 0.0004934457829222083 0.0020554072689265013
4023700000.0 0.0005997766857035458 0.0016821309691295028
4023800000.0 0.0008203403558582067 0.0018659381894394755
4023900000.0 0.0006509452359750867 0.001975749619305134
4024000000.0 0.0009884879691526294 0.0016875204164534807
4024100000.0 0.0007940742652863264 0.0018347310833632946
4024200000.0 0.0011486969888210297 0.001559683820232749
4024300000.0 0.000973102985881269 0.0018108253134414554
4024400000.0 0.0014383908128365874 0.0015787365846335888
4024500000.0 0.0010736437980085611 0.0014752638526260853
4024600000.0 0.0015009109629318118 0.0015979977324604988
4024700000.0 0.0014120606938377023 0.0012766163563355803
4024800000.0 0.0013991533778607845 0.0015692129964008927
4024900000.0 0.001404807553626597 0.0011248508235439658
4025000000.0 0.0016454989090561867 0.0013949180720373988
4025100000.0 0.0015962007455527782 0.001038877759128809
4025200000.0 0.0015800601104274392 0.0010508997365832329
4025300000.0 0.0019379325676709414 0.0007291968795470893
4025400000.0 0.0019905236549675465 0.0006781048141419888
4025500000.0 0.0018343798583373427 0.0007847605738788843
4025600000.0 0.0018616941524669528 0.0007898119511082768
4025700000.0 0.0021557637955993414 0.0007849784451536834
4025800000.0 0.0019623306579887867 0.000635765609331429
4025900000.0 0.0022160003427416086 0.0001973401813302189
4026000000.0 0.002001484390348196 0.00019343367603141814
4026100000.0 0.0022681315895169973 0.0003035172412637621
4026200000.0 0.0021421778947114944 0.00021978696167934686
4026300000.0 0.002408186439424753 -6.943682819837704e-05
4026400000.0 0.002381419762969017 -0.00036329805152490735
4026500000.0 0.0024093349929898977 -0.00022277813695836812
4026600000.0 0.002028824994340539 -0.0004961020895279944
4026700000.0 0.00239605107344687 -0.0006773715722374618
4026800000.0 0.00225806119851768 -0.0009319965611211956
4026900000.0 0.00203895871527493 -0.000704094476532191
4027000000.0 0.00240159104578197 -0.0008886607247404754
4027100000.0 0.002283703302964568 -0.0009630703134462237
4027200000.0 0.0022328332997858524 -0.001170918345451355
4027300000.0 0.0022247256711125374 -0.0011791344732046127
4027400000.0 0.001916170003823936 -0.0016239278484135866
4027500000.0 0.0020454395562410355 -0.0013584456173703074
4027600000.0 0.002043918939307332 -0.0016328911297023296
4027700000.0 0.0016763493185862899 -0.001898733782581985
4027800000.0 0.0014438427751883864 -0.0015053277602419257
4027900000.0 0.0013826701324433088 -0.001783758052624762
4028000000.0 0.0014714088756591082 -0.00218077190220356
4028100000.0 0.0014423382235690951 -0.001873230910860002
4028200000.0 0.001192572177387774 -0.001987812342122197
4028300000.0 0.0009962768526747823 -0.002361768390983343
4028400000.0 0.0009846220491454005 -0.0020760856568813324
4028500000.0 0.0010131944436579943 -0.0024806701112538576
4028600000.0 0.0009346880833618343 -0.0023282074835151434
4028700000.0 0.0005732821300625801 -0.00227694446220994
4028800000.0 0.0007880672346800566 -0.002547122072428465
4028900000.0 0.0002106307219946757 -0.0024033174850046635
4029000000.0 0.0001358225563308224 -0.0023903162218630314
4029100000.0 0.00032032327726483345 -0.002632877556607127
4029200000.0 0.00015932648966554552 -0.0026554649230092764
4029300000.0 5.2523781050695106e-05 -0.0026342524215579033
4029400000.0 -0.0003290396125521511 -0.0024176230654120445
4029500000.0 -0.00053849519463256 -0.002530129626393318
4029600000.0 -0.0007549000438302755 -0.0023894640617072582
4029700000.0 -0.0006001329747959971 -0.0024867583997547626
4029800000.0 -0.001144704525358975 -0.0025826646015048027
4029900000.0 -0.0009131723782047629 -0.0026289974339306355
4030000000.0 -0.0011900166282430291 -0.002241173991933465
4030100000.0 -0.0011395332403481007 -0.002148375613614917
4030200000.0 -0.0014424070250242949 -0.0021038404665887356
4030300000.0 -0.0016196987126022577 -0.0019945483654737473
4030400000.0 -0.0014684469206258655 -0.002004590118303895
4030500000.0 -0.0020109873730689287 -0.00192744517698884
4030600000.0 -0.0020707976073026657 -0.0018625858938321471
4030700000.0 -0.0018490625079721212 -0.0018763376865535975
4030800000.0 -0.0023146308958530426 -0.0016101138899102807
4030900000.0 -0.002211175858974457 -0.0018298302311450243
4031000000.0 -0.0025131008587777615 -0.001366065931506455
4031100000.0 -0.0023013134486973286 -0.0011476045474410057
4031200000.0 -0.0024591218680143356 -0.001547134481370449
4031300000.0 -0.0027361956890672445 -0.0011013841722160578
4031400000.0 -0.0028742277063429356 -0.0009042187593877316
4031500000.0 -0.002656117081642151 -0.0009356614318676293
4031600000.0 -0.0027327868156135082 -0.0005213352269493043
4031700000.0 -0.002860406879335642 -0.0003315444628242403
4031800000.0 -0.0025636490900069475 -0.00026676509878598154
4031900000.0 -0.0030224204529076815 -0.0001559701922815293
4032000000.0 -0.0026210222858935595 -0.00011127351899631321
4032100000.0 -0.0029083462432026863 0.0003930702223442495
4032200000.0 -0.0029214774258434772 0.00041416188469156623
4032300000.0 -0.0030880102422088385 0.00040042639011517167
4032400000.0 -0.0025451690889894962 0.0004988422151654959
4032500000.0 -0.0028691573534160852 0.0009387333993799984
4032600000.0 -0.0025432980619370937 0.0009370783809572458
4032700000.0 -0.002469002967700362 0.0009659368661232293
4032800000.0 -0.0020064618438482285 0.0012963158078491688
4032900000.0 -0.002513469895347953 0.001152931246906519
4033000000.0 -0.00243664369918406 0.0016284032026305795
4033100000.0 -0.002190740080550313 0.0017520475666970015
4033200000.0 -0.002489226870238781 0.0017036664066836238
4033300000.0 -0.0022329469211399555 0.0020665423944592476
4033400000.0 -0.001974887680262327 0.00210202275775373
4033500000.0 -0.002180976327508688 0.002185460180044174
4033600000.0 -0.0019867378287017345 0.002028969582170248
4033700000.0 -0.001936654793098569 0.0023451705928891897
4033800000.0 -0.001784904976375401 0.0023057328071445227
4033900000.0 -0.0013751789228990674 0.0025405744090676308
4034000000.0 -0.001172682037577033 0.0023656049743294716
4034100000.0 -0.0014544996665790677 0.002631590934470296
4034200000.0 -0.0010270371567457914 0.0028925288934260607
4034300000.0 -0.0010245473822578788 0.00293828547000885
4034400000.0 -0.0006176546448841691 0.0028729853220283985
4034500000.0 -0.0005081279668956995 0.002529357559978962
4034600000.0 -0.000647609296720475 0.0027277818880975246
4034700000.0 -0.0005699272733181715 0.002768575679510832
4034800000.0 -5.6237833632621914e-05 0.002725753700360656
4034900000.0 -0.0001410831609973684 0.0030110371299088
4035000000.0 -0.00012558771413750947 0.0028468044474720955
4035100000.0 0.00019764306489378214 0.0031096714083105326
4035200000.0 0.0005916017107665539 0.0029525901190936565
4035300000.0 0.0007660582778044045 0.0027350413147360086
4035400000.0 0.0009600676130503416 0.002840010914951563
4035500000.0 0.001188142690807581 0.002656791126355529
4035600000.0 0.0009986612712964416 0.0024989363737404346
4035700000.0 0.0009637819603085518 0.002624804386869073
4035800000.0 0.001277581905014813 0.0023487720172852278
4035900000.0 0.001425009686499834 0.002293952740728855
4036000000.0 0.0016631192993372679 0.0026084762066602707
4036100000.0 0.0020486123394221067 0.0025276897940784693
4036200000.0 0.0016121827065944672 0.0020533583592623472
4036300000.0 0.0016801488818600774 0.0021639175247401
4036400000.0 0.0022804969921708107 0.002036251127719879
4036500000.0 0.002371382899582386 0.0018560553435236216
4036600000.0 0.0024205204099416733 0.001935512525960803
4036700000.0 0.002134894486516714 0.0018133327830582857
4036800000.0 0.0025887000374495983 0.0016491403803229332
4036900000.0 0.0027026180177927017 0.0013509946875274181
4037000000.0 0.0025346793700009584 0.0010948030976578593
4037100000.0 0.0024578438606113195 0.0010637453524395823
4037200000.0 0.0025288339238613844 0.0010203421115875244
4037300000.0 0.002952984068542719 0.0009053518297150731
4037400000.0 0.002943372819572687 0.0006049919174984097
4037500000.0 0.0029112540651112795 0.00036860955879092216
4037600000.0 0.0025943482760339975 0.0004229515907354653
4037700000.0 0.0028805367182940245 0.00041269176290370524
4037800000.0 0.002848403062671423 0.0004188117745798081
4037900000.0 0.0030118804425001144 -0.0001794656564015895
4038000000.0 0.00284205237403512 4.987264037481509e-05
4038100000.0 0.0028170598670840263 -0.00011320319026708603
4038200000.0 0.0029313932172954082 -0.000282240507658571
4038300000.0 0.0027688888367265463 -0.0008319533662870526
4038400000.0 0.0025541819632053375 -0.0008079883991740644
4038500000.0 0.0026550034526735544 -0.0007197821978479624
4038600000.0 0.0024238675832748413 -0.0009631690918467939
4038700000.0 0.002764823380857706 -0.0011625824263319373
4038800000.0 0.002214254578575492 -0.0010167090222239494
4038900000.0 0.002582424320280552 -0.0015874557429924607
4039000000.0 0.002469416009262204 -0.001702107023447752
4039100000.0 0.002051332499831915 -0.0015915202675387263
4039200000.0 0.0019906628876924515 -0.0017552520148456097
4039300000.0 0.002308529568836093 -0.001905958284623921
4039400000.0 0.0018772955518215895 -0.0017776816384866834
4039500000.0 0.0017545424634590745 -0.0022743318695575
4039600000.0 0.0017861456144601107 -0.002035123761743307
4039700000.0 0.0018062266753986478 -0.0023425573017448187
4039800000.0 0.001338837668299675 -0.002575524849817157
4039900000.0 0.001249392400495708 -0.002371210604906082
4040000000.0 0.0011240517487749457 -0.002365804510191083
4040100000.0 0.0010259589180350304 -0.0028132395818829536
4040200000.0 0.0012196835596114397 -0.0026346107479184866
4040300000.0 0.000926850363612175 -0.002540611894801259
4040400000.0 0.000909498194232583 -0.002667374908924103
4040500000.0 0.0008315739687532187 -0.0028250813484191895
4040600000.0 0.0002568580093793571 -0.0027437820099294186
4040700000.0 0.00011379099305486307 -0.0027383619453758
4040800000.0 7.343854667851701e-05 -0.003131211968138814
4040900000.0 2.553718695708085e-05 -0.0026423458475619555
4041000000.0 -0.0003123322385363281 -0.002701683435589075
4041100000.0 -0.00012219190830364823 -0.002684513106942177
4041200000.0 -0.0003092525585088879 -0.0030292081646621227
4041300000.0 -0.0005434310878627002 -0.0026046009734272957
4041400000.0 -0.0006249373545870185 -0.002945198444649577
4041500000.0 -0.0010826473589986563 -0.0025263146962970495
4041600000.0 -0.0009073429391719401 -0.002746730810031295
4041700000.0 -0.0012220063945278525 -0.0024225227534770966
4041800000.0 -0.0014283715281635523 -0.002712672110646963
4041900000.0 -0.0012451495276764035 -0.0024908781051635742
4042000000.0 -0.0017787228571251035 -0.00245497515425086
4042100000.0 -0.0013353207614272833 -0.0022613294422626495
4042200000.0 -0.0020368085242807865 -0.002345518907532096
4042300000.0 -0.0021602564956992865 -0.0021836792584508657
4042400000.0 -0.0023195703979581594 -0.002055930905044079
4042500000.0 -0.001962668728083372 -0.0018267353298142552
4042600000.0 -0.0024158856831490993 -0.0016462263884022832
4042700000.0 -0.0021310781594365835 -0.0016646507428959012
4042800000.0 -0.002638532081618905 -0.0016421910841017962
4042900000.0 -0.002477664267644286 -0.0012534245615825057
4043000000.0 -0.002672746544703841 -0.0011053091147914529
4043100000.0 -0.002957172691822052 -0.0011481065303087234
4043200000.0 -0.002633125754073262 -0.0009440995054319501
4043300000.0 -0.002864585258066654 -0.0007316201226785779
4043400000.0 -0.0031183327082544565 -0.0007886691601015627
4043500000.0 -0.0030963232275098562 -0.00046347067109309137
4043600000.0 -0.0028304040897637606 -0.00021361757535487413
4043700000.0 -0.002967061474919319 -0.00047032308066263795
4043800000.0 -0.0027542784810066223 -0.0004171806504018605
4043900000.0 -0.0028135967440903187 5.97493453824427e-05
4044000000.0 -0.0032041536178439856 0.0001970844023162499
4044100000.0 -0.0026871622540056705 0.0003897957503795624
4044200000.0 -0.00281142327003181 0.0007424887153320014
4044300000.0 -0.003038894385099411 0.0008381724474020302
4044400000.0 -0.0030509165953844786 0.0008502349373884499
4044500000.0 -0.0025913736317306757 0.0009944606572389603
4044600000.0 -0.00297471578232944 0.0012733462499454618
4044700000.0 -0.002592736855149269 0.00145324831828475
4044800000.0 -0.002666272921487689 0.0017169154016301036
4044900000.0 -0.0026426867116242647 0.0018340253736823797
4045000000.0 -0.0023406478576362133 0.0016617017099633813
4045100000.0 -0.0022887387312948704 0.0021551623940467834
4045200000.0 -0.0023356080055236816 0.0018583309138193727
4045300000.0 -0.002093907678499818 0.0019766257610172033
4045400000.0 -0.002073341514915228 0.002427537925541401
4045500000.0 -0.002108121057972312 0.002108339685946703
4045600000.0 -0.0017460188828408718 0.002707950072363019
4045700000.0 -0.001421858207322657 0.002575905295088887
4045800000.0 -0.0015539767919108272 0.002512674778699875
4045900000.0 -0.0011094685178250074 0.002784589072689414
4046000000.0 -0.0012223748490214348 0.003083036979660392
4046100000.0 -0.001066436874680221 0.0030567965004593134
4046200000.0 -0.0007086028344929218 0.003090590238571167
4046300000.0 -0.0005105722812004387 0.0031603726092725992
4046400000.0 -0.0007021724595688283 0.0030304533429443836
4046500000.0 -0.0005323445657268167 0.0030707658734172583
4046600000.0 -0.00038181987474672496 0.003028973238542676
4046700000.0 -3.472506068646908e-05 0.0032795185688883066
4046800000.0 -1.719567626423668e-05 0.0031015437562018633
4046900000.0 0.0005899453535676003 0.0031328483019024134
4047000000.0 0.0006578986067324877 0.0029234872199594975
4047100000.0 0.0011667986400425434 0.0027476735413074493
4047200000.0 0.0007180894608609378 0.002935198135674
4047300000.0 0.0012634528102353215 0.003045471617951989
4047400000.0 0.0010478360345587134 0.002957424148917198
4047500000.0 0.0015036085387691855 0.002586577320471406
4047600000.0 0.0017961652483791113 0.002722342498600483
4047700000.0 0.0017580679850652814 0.0023543573915958405
4047800000.0 0.0018867827020585537 0.002323976717889309
4047900000.0 0.0020581248681992292 0.0026327732484787703
4048000000.0 0.0020663414616137743 0.0024104043841362
4048100000.0 0.0022683183196932077 0.0023384562227874994
4048200000.0 0.0022409874945878983 0.0018914584070444107
4048300000.0 0.0027753280010074377 0.0019256185041740537
4048400000.0 0.002622643020004034 0.001490925089456141
4048500000.0 0.0027603539638221264 0.001711214310489595
4048600000.0 0.0027034718077629805 0.0014929596800357103
4048700000.0 0.0027308401186019182 0.0010050875134766102
4048800000.0 0.0028673901688307524 0.0009020099532790482
4048900000.0 0.0028011726681143045 0.0007542711100541055
4049000000.0 0.0032496850471943617 0.0007491580909118056
4049100000.0 0.0028325794264674187 0.00037796085234731436
4049200000.0 0.0032818964682519436 0.0003465081099420786
4049300000.0 0.0031368155032396317 -0.00013727709301747382
4049400000.0 0.003265742678195238 -0.0001462476357119158
4049500000.0 0.0028881060425192118 -0.00014798212214373052
4049600000.0 0.0027968324720859528 -0.0004010526172351092
4049700000.0 0.0028063396457582712 -0.0007788714137859643
4049800000.0 0.002617410384118557 -0.0007904148660600185
4049900000.0 0.0030280600767582655 -0.0010675617959350348
4050000000.0 0.0026751600671559572 -0.0013418402522802353
4050100000.0 0.002753647742792964 -0.001518718432635069
4050200000.0 0.0027428697794675827 -0.0015484389150515199
4050300000.0 0.002574116922914982 -0.001861074473708868
4050400000.0 0.002203163458034396 -0.0015290798619389534
4050500000.0 0.0023745775688439608 -0.0020856994669884443
4050600000.0 0.0019296453101560473 -0.0020622562151402235
4050700000.0 0.002075866097584367 -0.0022363706957548857
4050800000.0 0.0021145108621567488 -0.002109035151079297
4050900000.0 0.0014952964847907424 -0.002255803905427456
4051000000.0 0.0016968502895906568 -0.0021967673674225807
4051100000.0 0.0014092163182795048 -0.002239420311525464
4051200000.0 0.0011914479546248913 -0.002751268446445465
4051300000.0 0.0012673988239839673 -0.0024851583875715733
4051400000.0 0.0008015820640139282 -0.002743637654930353
4051500000.0 0.000671631598379463 -0.002480806317180395
4051600000.0 0.000505075033288449 -0.002791499951854348
4051700000.0 0.00047964201075956225 -0.0028602106031030416
4051800000.0 0.00015124859055504203 -0.0027357337530702353
4051900000.0 0.0002720897027757019 -0.002478062640875578
4052000000.0 -0.0002455122594255954 -0.002552228746935725
4052100000.0 -0.0004264785966370255 -0.00249279523268342
4052200000.0 -0.0005114644300192595 -0.0024859372060745955
4052300000.0 -0.00041514637996442616 -0.002284955233335495
4052400000.0 -0.0005315426387824118 -0.0025812156964093447
4052500000.0 -0.0007478583720512688 -0.002030269941315055
4052600000.0 -0.0008307269308716059 -0.002478882437571883
4052700000.0 -0.0011345642851665616 -0.0023992392234504223
4052800000.0 -0.0011336986208334565 -0.0019094165181741118
4052900000.0 -0.0013004339998587966 -0.0018177868332713842
4053000000.0 -0.0014191565569490194 -0.002107845386490226
4053100000.0 -0.0016270788619294763 -0.0019125991966575384
4053200000.0 -0.001081058057025075 -0.001262941863387823
4053300000.0 -0.001509773195721209 -0.0014340620255097747
4053400000.0 -0.0019147887360304594 -0.0014672501711174846
4053500000.0 -0.0019461163319647312 -0.001359628513455391
4053600000.0 -0.0019488189136609435 -0.0015029343776404858
4053700000.0 -0.0015842195134609938 -0.0011405096156522632
4053800000.0 -0.0020431915763765574 -0.001158354920335114
4053900000.0 -0.0019379400182515383 -0.0007616238435730338
4054000000.0 -0.0017783488146960735 -0.0007222858257591724
4054100000.0 -0.002134724985808134 -0.0008379569626413286
4054200000.0 -0.002044286346063018 -0.0007952065207064152
4054300000.0 -0.0019024641951546073 -0.000693400448653847
4054400000.0 -0.0017864570254459977 -0.00048129260540008545
4054500000.0 -0.002170796040445566 -7.594930502818897e-05
4054600000.0 -0.00219611800275743 -0.0002186359342886135
4054700000.0 -0.0020460188388824463 4.128822547500022e-05
4054800000.0 -0.002187148667871952 0.00013665003643836826
4054900000.0 -0.0020843222737312317 0.00021001700952183455
4055000000.0 -0.0017929737223312259 1.5376082956208847e-05
4055100000.0 -0.0019563077948987484 0.0005101608112454414
4055200000.0 -0.0018322713440284133 0.0002282757341163233
4055300000.0 -0.0016011294210329652 0.0005379009526222944
4055400000.0 -0.001790940179489553 0.0007604308193549514
4055500000.0 -0.001445492380298674 0.000522857706528157
4055600000.0 -0.0013906487729400396 0.0009166933596134186
4055700000.0 -0.0016874907305464149 0.000967495609074831
4055800000.0 -0.001500115729868412 0.0006661070510745049
4055900000.0 -0.001233249786309898 0.0008332393481396139
4056000000.0 -0.0011691884137690067 0.0008690052200108767
4056100000.0 -0.0014207928907126188 0.0011895414208993316
4056200000.0 -0.0013689653715118766 0.001133233541622758
4056300000.0 -0.0010851600673049688 0.0013664372963830829
4056400000.0 -0.0008064160356298089 0.0011737446766346693
4056500000.0 -0.001064053736627102 0.0009118295856751502
4056600000.0 -0.0009237333433702588 0.0014518490061163902
4056700000.0 -0.0009274121839553118 0.0014953352510929108
4056800000.0 -0.0006286491407081485 0.0011410107836127281
4056900000.0 -0.0006256647757254541 0.0015579020837321877
4057000000.0 -0.00038433802546933293 0.0012641687644645572
4057100000.0 -0.0004595075733959675 0.0010929643176496029
4057200000.0 -0.0005032651824876666 0.0012557308655232191
4057300000.0 -0.00014375936007127166 0.0013609753223136067
4057400000.0 -0.00014973773795645684 0.0012329540913924575
4057500000.0 -0.0004373186966404319 0.0013083876110613346
4057600000.0 -0.0001560514938319102 0.0011675289133563638
4057700000.0 6.166779348859563e-05 0.0016094256425276399
4057800000.0 1.6751804650994018e-05 0.0011195511324331164
4057900000.0 -3.063761823796085e-06 0.0011533856159076095
4058000000.0 0.0003805480955634266 0.0012461559381335974
4058100000.0 0.0006012727390043437 0.0009117456502281129
4058200000.0 8.91495801624842e-05 0.0012988129165023565
4058300000.0 0.00015893402451183647 0.0013944670790806413
4058400000.0 0.0002556337567511946 0.0010156473144888878
4058500000.0 0.0005101700662635267 0.0009694727486930788
4058600000.0 0.00035508518340066075 0.0013341634767130017
4058700000.0 0.0003202255757059902 0.0012691599549725652
4058800000.0 0.0003070211096201092 0.0010979879880324006
4058900000.0 0.0008159099379554391 0.001111248042434454
4059000000.0 0.0005046394071541727 0.000994039699435234
4059100000.0 0.0007338524446822703 0.0006786967278458178
4059200000.0 0.0009308494045399129 0.0007338409777730703
4059300000.0 0.0009228751878254116 0.0010137228528037667
4059400000.0 0.001083274488337338 0.000757858157157898
4059500000.0 0.0009988226229324937 0.0007966427365317941
4059600000.0 0.000605798268225044 0.0007834671996533871
4059700000.0 0.001030469429679215 0.00048200186574831605
4059800000.0 0.0011181444860994816 0.00040718019590713084
4059900000.0 0.0008451834437437356 0.00032390272826887667
4060000000.0 0.0007166396244429052 0.0004950970178470016
4060100000.0 0.0011366382241249084 0.0003998761239927262
4060200000.0 0.0008008652948774397 0.0005419402150437236
4060300000.0 0.0009233833407051861 0.0005988201592117548
4060400000.0 0.0012077066348865628 0.00030318438075482845
4060500000.0 0.0010300142457708716 4.613877536030486e-05
4060600000.0 0.0007757567218504846 0.00036033953074365854
4060700000.0 0.0007410473190248013 0.00022491147683467716
4060800000.0 0.0009763867128640413 0.00022494587756227702
4060900000.0 0.0007358756265603006 4.542113310890272e-05
4061000000.0 0.000717502145562321 0.00011513933714013547
4061100000.0 0.0008912741323001683 -0.0003246307314839214
4061200000.0 0.0007402161718346179 -0.00010418035526527092
4061300000.0 0.0008895376813597977 -0.00033578716102056205
4061400000.0 0.0009439866407774389 -0.0004115001065656543
4061500000.0 0.0007315186667256057 -0.0002809057477861643
4061600000.0 0.0007695664535276592 -6.454675894929096e-05
4061700000.0 0.0007557614590041339 -0.0005106720491312444
4061800000.0 0.0005508867907337844 -0.0003963955969084054
4061900000.0 0.0009213569574058056 -0.00010842596384463832
4062000000.0 0.0009412993676960468 -0.00022803684987593442
4062100000.0 0.0007498149061575532 -0.00015184868243522942
4062200000.0 0.0004940342623740435 -0.0003253431641496718
4062300000.0 0.0006068040966056287 -0.0007288946653716266
4062400000.0 0.0005480907275341451 -0.0007293322705663741
4062500000.0 0.0011889506131410599 -0.0002538079279474914
4062600000.0 0.0007470615673810244 -0.0003284913254901767
4062700000.0 0.00038344800123013556 -0.0006813906948082149
4062800000.0 0.0007747277268208563 -0.0007411735132336617
4062900000.0 0.0005209415685385466 -0.0003738680970855057
4063000000.0 0.0006370557239279151 -0.0003790295741055161
4063100000.0 0.0004111960588488728 -0.00045805625268258154
4063200000.0 0.0002389398287050426 -0.0008841893286444247
4063300000.0 0.00042195277637802064 -0.0008734511211514473
4063400000.0 0.0003169712726958096 -0.000908142130356282
4063500000.0 0.00041812536073848605 -0.0009564895881339908
4063600000.0 0.0004517920024227351 -0.0008168022031895816
4063700000.0 1.895646892080549e-05 -0.0005224504857324064
4063800000.0 0.00028884506900794804 -0.0009432929800823331
4063900000.0 -8.058654930209741e-05 -0.0006503689219243824
4064000000.0 0.0002552627702243626 -0.0008448583539575338
4064100000.0 -7.246823224704713e-05 -0.0007268203771673143
4064200000.0 -1.7331050912616774e-05 -0.0004062639782205224
4064300000.0 0.0002469510945957154 -0.0006537182489410043
4064400000.0 0.0001441714121028781 -0.0008915628422982991
4064500000.0 -3.0427376259467565e-05 -0.00046062463661655784
4064600000.0 8.033108315430582e-05 -0.0005356001202017069
4064700000.0 8.859065565047786e-05 -0.0004570488817989826
4064800000.0 -0.00012587045785039663 -0.00038408554974012077
4064900000.0 -0.0001511776354163885 -0.0008865915588103235
4065000000.0 -0.00024762589600868523 -0.0004036198079120368
4065100000.0 8.436727512162179e-05 -0.0004882973153144121
4065200000.0 -0.0002446695580147207 -0.00041237956611439586
4065300000.0 -9.943268378265202e-05 -0.0007254306692630053
4065400000.0 -0.0004412344715092331 -0.0007644256693311036
4065500000.0 -0.000468351470772177 -0.0004035870369989425
4065600000.0 -3.9443824789486825e-05 -0.00046897344873286784
4065700000.0 -0.0004510500584729016 -0.0007055429741740227
4065800000.0 0.00016842375043779612 -0.00021754678164143115
4065900000.0 -0.00023525832511950284 -0.00023899722145870328
4066000000.0 -0.00026758367312140763 -0.0006801369017921388
4066100000.0 -0.00045656165457330644 -0.0001798244338715449
4066200000.0 -0.0006208828999660909 -0.00025899731554090977
4066300000.0 -0.0005414157640188932 -0.0002642892941366881
4066400000.0 -0.0007126724231056869 -0.0002916477678809315
4066500000.0 -0.00017738337919581681 -0.0002546866307966411
4066600000.0 -0.00024453329388052225 -0.0001546823332319036
4066700000.0 -0.0007036645547486842 -0.0003707624855451286
4066800000.0 -0.0007477334002032876 -0.0003957874432671815
4066900000.0 -0.0002839771332219243 -0.00016395722923334688
4067000000.0 -0.0006276950007304549 -2.4563498300267383e-05
4067100000.0 -0.0004322170570958406 1.4301456303655868e-06
4067200000.0 -0.00030396305373869836 5.7758563343668357e-05
4067300000.0 -0.0005822914536111057 0.00010336995910620317
4067400000.0 -0.0003069584199693054 -0.00021780532551929355
4067500000.0 -0.0005227937363088131 -0.0005009225569665432
4067600000.0 -0.0003524194471538067 -0.00027179563767276704
4067700000.0 -0.0006406243774108589 -0.00029236433329060674
4067800000.0 -0.0005615319823846221 0.00021190814732108265
4067900000.0 -0.0006882266607135534 0.00015956844436004758
4068000000.0 -0.0006680427468381822 -6.610444688703865e-05
4068100000.0 -0.000543531496077776 -0.00022155004262458533
4068200000.0 -0.0005265895742923021 0.00028891884721815586
4068300000.0 -0.00026985519798472524 0.00021240487694740295
4068400000.0 -0.0006347018643282354 0.0002545137540437281
4068500000.0 -0.0001127009600168094 -3.1999638849811163e-06
4068600000.0 -0.0002751295978669077 -2.9563720090663992e-05
4068700000.0 -0.00045052170753479004 0.00041751665412448347
4068800000.0 -0.0006258497596718371 -2.4647973987157457e-05
4068900000.0 -0.0005891934270039201 0.00014697990263812244
4069000000.0 -0.00028628288418985903 0.00039523164741694927
4069100000.0 -0.00014362834917847067 0.00024768407456576824
4069200000.0 -0.00035795129952020943 0.00040657317731529474
4069300000.0 -0.0006473378161899745 0.0003834325179923326
4069400000.0 -0.000532631587702781 7.795609417371452e-05
4069500000.0 -9.16070057428442e-05 0.0003611994325183332
4069600000.0 -0.0003872872330248356 2.0599993149517104e-05
4069700000.0 -0.00012318191875237972 0.00013183604460209608
4069800000.0 -0.0003854891692753881 0.0005241589387878776
4069900000.0 -0.0005795229808427393 0.00036363827530294657
4070000000.0 -0.0002689223038032651 7.408768578898162e-05
4070100000.0 -7.813025149516761e-05 0.0001290240470552817
4070200000.0 -0.00038386188680306077 0.0005031630862504244
4070300000.0 -7.84169060352724e-06 0.00044902737135998905
4070400000.0 -0.0003746873408090323 0.0005168603966012597
4070500000.0 -0.00017292966367676854 0.0006263796240091324
4070600000.0 -0.0004007454263046384 0.00038303493056446314
4070700000.0 -5.7714634749572724e-05 0.00018893330707214773
4070800000.0 -0.0003778742393478751 0.0002287246024934575
4070900000.0 -0.0001396024745190516 0.00015070261724758893
4071000000.0 -0.00015135674038901925 0.0005862766411155462
4071100000.0 -0.00012563838390633464 0.00016037332534324378
4071200000.0 -0.0002786313707474619 0.00048310906277038157
4071300000.0 -0.00026940013049170375 0.0003620099159888923
4071400000.0 7.632515189470723e-05 0.0005459196399897337
4071500000.0 -8.428904402535409e-05 0.0006291125318966806
4071600000.0 0.00021965533960610628 0.0002277488965773955
4071700000.0 -0.00014569905761163682 0.0002669260429684073
4071800000.0 -0.0001639887341298163 0.0005631677340716124
4071900000.0 -4.8859317757887766e-05 0.00015891635848674923
4072000000.0 0.00028779215062968433 0.00028794066747650504
4072100000.0 -0.000129904190544039 0.000472499814350158
4072200000.0 0.00028851800016127527 0.000555573555175215
4072300000.0 0.0003959597379434854 0.0003947596123907715
4072400000.0 -2.2539315978065133e-05 0.00046241687959991395
4072500000.0 0.0002904005814343691 0.0004790285893250257
4072600000.0 0.00036342471139505506 0.00013052432041149586
4072700000.0 0.00025491334963589907 9.46128711802885e-05
4072800000.0 0.00030482953297905624 0.0005511651397682726
4072900000.0 0.00024382409173995256 0.0004938558558933437
4073000000.0 0.00035752583062276244 0.0001255718234460801
4073100000.0 0.0004094222385901958 0.0004592046025209129
4073200000.0 2.7916306862607598e-05 0.00045926435268484056
4073300000.0 0.0003749291063286364 0.0004973426111973822
4073400000.0 0.000400696910219267 0.0004549151926767081
4073500000.0 0.00018395679944660515 -0.00016130972653627396
4073600000.0 0.0001344672782579437 9.072273678611964e-05
4073700000.0 0.0004873816214967519 0.00018433206423651427
4073800000.0 0.00010626002767821774 0.00042153109097853303
4073900000.0 0.00035971516626887023 -3.569979526218958e-05
4074000000.0 0.00019106057879980654 -0.00010404476779513061
4074100000.0 0.000564043817576021 0.00020802728249691427
4074200000.0 0.00048659974709153175 -3.121516419923864e-05
4074300000.0 0.0005201167077757418 0.000163833043188788
4074400000.0 2.1048121197964065e-05 0.0001578550727572292
4074500000.0 0.000600738450884819 6.695931369904429e-05
4074600000.0 0.0004687713226303458 -6.71309680910781e-05
4074700000.0 0.0005062820273451507 -0.00011785329843405634
4074800000.0 9.38463635975495e-05 -2.984362254210282e-05
4074900000.0 0.0004621713887900114 0.0002587359631434083
4075000000.0 8.89352013473399e-05 0.00016241434786934406
4075100000.0 0.0005659538437612355 -0.0001263727026525885
4075200000.0 -0.00028026633663102984 0.000201685557840392
4075300000.0 0.00013557921920437366 0.00017573768855072558
4075400000.0 0.0005660659517161548 8.39723288663663e-05
4075500000.0 4.303280366002582e-05 5.366489494917914e-05
4075600000.0 0.00019307718321215361 -0.00023862000671215355
4075700000.0 0.0004949456197209656 -0.00015693878231104463
4075800000.0 0.00026458504726178944 0.00010983784886775538
4075900000.0 0.00010629298049025238 -0.0002954350202344358
4076000000.0 0.000317336933221668 -0.0003172906581312418
4076100000.0 0.0004900144413113594 0.00012672360753640532
4076200000.0 8.424278348684311e-05 -0.00027748499996960163
4076300000.0 0.000414113252190873 -0.00023687643988523632
4076400000.0 0.0004221333656460047 -0.00029397779144346714
4076500000.0 0.0001394327264279127 3.8793383282609284e-05
4076600000.0 1.5154681932472158e-05 -0.00020140342530794442
4076700000.0 5.809952563140541e-05 -0.00030485939350910485
4076800000.0 9.362293349113315e-05 -0.0007516858750022948
4076900000.0 -5.437039362732321e-05 -0.0003254474140703678
4077000000.0 -6.4650262174836826e-06 -0.00012068590149283409
4077100000.0 0.00035422571818344295 -0.00042235542787238955
4077200000.0 -5.095793312648311e-06 2.4497399863321334e-05
4077300000.0 -1.947323471540585e-05 -0.00010834562999662012
4077400000.0 0.0003825646417681128 -0.0001685337774688378
4077500000.0 -8.876181527739391e-05 -0.0002348968555452302
4077600000.0 6.264293187996373e-05 -0.0004279903369024396
4077700000.0 0.00018445492605678737 -0.00045579957077279687
4077800000.0 1.862781027739402e-05 -0.00043304997961968184
4077900000.0 0.00019080891797784716 -0.0004918372724205256
4078000000.0 5.479445826495066e-05 -0.0004688795597758144
4078100000.0 0.00032543897395953536 -9.718645742395893e-05
4078200000.0 -0.00011540905688889325 -0.00037182969390414655
4078300000.0 9.799288091016933e-05 -0.000454696302767843
4078400000.0 1.692409387032967e-05 -0.0005524076987057924
4078500000.0 -9.387959289597347e-05 6.069666051189415e-05
4078600000.0 -9.12455579964444e-05 4.2658026359276846e-05
4078700000.0 0.0001831495901569724 -0.00012304088158998638
4078800000.0 5.126064570504241e-05 8.883673581294715e-05
4078900000.0 -0.00019686852465383708 -0.0002797060296870768
4079000000.0 4.9329119065077975e-05 -0.0005344446399249136
4079100000.0 0.0001302036107517779 -0.0004151787725277245
4079200000.0 0.0002546172763686627 -0.00021134568669367582
4079300000.0 0.00025848872610367835 -0.00027316613704897463
4079400000.0 0.00016979187785182148 -0.00010634376667439938
4079500000.0 -0.0003207250265404582 -0.000186165765626356
4079600000.0 0.0002291383862029761 -0.00015747979341540486
4079700000.0 -0.0001755700068315491 6.247752025956288e-05
4079800000.0 0.00013061764184385538 -0.00019000284373760223
4079900000.0 -0.0001530078734504059 -0.0004261752765160054
4080000000.0 -4.988118234905414e-05 -0.000489896337967366
4080100000.0 -0.0003251155139878392 -0.00022100847854744643
4080200000.0 -0.0002849021111615002 0.00010012678831117228
4080300000.0 0.00014912124606780708 -0.00026960871764458716
4080400000.0 -0.0003352703934069723 -9.381763084093109e-05
4080500000.0 6.844880408607423e-05 -0.0004129993903916329
4080600000.0 -9.296395728597417e-05 -0.0004619161190930754
4080700000.0 8.155389514286071e-05 -6.966456567170098e-05
4080800000.0 -0.00016763659368734807 -0.00035810182453133166
4080900000.0 -0.0003591272688936442 -0.00032181039568968117
4081000000.0 -7.92503051343374e-05 -0.00036301673389971256
4081100000.0 8.231448191509116e-06 -0.00030566673376597464
4081200000.0 -0.0005218006554059684 -4.46495832875371e-05
4081300000.0 -0.0001498922792961821 6.90898741595447e-05
4081400000.0 -6.160925113363191e-05 3.389413905097172e-05
4081500000.0 -0.00024805471184663475 -0.0003634305903688073
4081600000.0 -0.0004158061638008803 -6.661299266852438e-05
4081700000.0 1.0813776498252992e-05 -1.4669495612906758e-05
4081800000.0 -7.977649511303753e-05 -0.00029276430723257363
4081900000.0 -0.0003972301783505827 -0.00016062214854173362
4082000000.0 -0.0004920526989735663 -3.6997937513660872e-06
4082100000.0 -8.038052328629419e-05 6.370319169946015e-05
4082200000.0 5.524764128495008e-05 -0.00012809129839297384
4082300000.0 -0.00013332077651284635 -0.0003247938002459705
4082400000.0 -0.0003319492971058935 0.00016195049101952463
4082500000.0 -0.00031669126474298537 -0.0002714493602979928
4082600000.0 -0.00036632793489843607 0.0002356163167860359
4082700000.0 -0.00043417219421826303 6.669887079624459e-05
4082800000.0 -0.0001776399731170386 -0.00032855599420145154
4082900000.0 -0.00030138168949633837 -0.00020887012942694128
4083000000.0 -0.00039006650331430137 -0.00017163215670734644
4083100000.0 -6.639894854743034e-05 -0.00018709419236984104
4083200000.0 -1.8919155991170555e-05 0.00019767729099839926
4083300000.0 -4.309791256673634e-05 0.00021114076662342995
4083400000.0 -0.00036519375862553716 0.0003039808652829379
4083500000.0 -0.00043584199738688767 -7.41777039365843e-05
4083600000.0 -0.00012111978867324069 0.00026413422892801464
4083700000.0 -0.00040570806595496833 0.00016143720131367445
4083800000.0 5.643004996613854e-08 -9.709353616926819e-05
4083900000.0 -0.00041896296897903085 0.00014440069207921624
4084000000.0 9.595117262506392e-06 9.95961599983275e-05
4084100000.0 -4.01543038606178e-05 -2.297028186148964e-05
4084200000.0 -4.566821007756516e-05 -6.971362745389342e-05
4084300000.0 5.840537414769642e-05 0.00021580483007710427
4084400000.0 -0.00042153752292506397 0.00017784569354262203
4084500000.0 0.00023727239749860018 -0.0002895411162171513
4084600000.0 -0.00043788665789179504 3.8173049688339233e-05
4084700000.0 3.795074735535309e-05 0.000305241032037884
4084800000.0 -0.00041534967022016644 0.00018371483020018786
4084900000.0 8.953041833592579e-05 7.776420534355566e-05
4085000000.0 1.8918497517006472e-05 0.0004103097307961434
4085100000.0 0.00012198569311294705 0.00014817423652857542
4085200000.0 0.0001616144145373255 0.00029045427800156176
4085300000.0 0.00016037956811487675 6.903892062837258e-05
4085400000.0 0.0001349528756691143 0.00039211942930705845
4085500000.0 -5.7747543905861676e-05 -7.403214840451255e-05
4085600000.0 0.00016914852312766016 1.1640062439255416e-05
4085700000.0 -3.896193811669946e-05 0.00046035516425035894
4085800000.0 -0.00016247699386440217 -6.48042987450026e-05
4085900000.0 -0.0002965580206364393 0.00014697246660944074
4086000000.0 0.00016162722022272646 0.00010255281813442707
4086100000.0 -0.0002519882982596755 0.0002286637609358877
4086200000.0 -0.0002505974262021482 -0.0002565706963650882
4086300000.0 0.00018828720203600824 0.0003748881572391838
4086400000.0 0.00015416124369949102 0.00035863486118614674
4086500000.0 0.00018294680921826512 -8.95921912160702e-05
4086600000.0 8.074184006545693e-05 -3.105127325397916e-05
4086700000.0 -1.9682202037074603e-05 -8.625091140856966e-05
4086800000.0 -0.00016250123735517263 8.150267240125686e-05
4086900000.0 0.00024981616297736764 0.0001251990324817598
4087000000.0 -0.00015933270333334804 0.00031660872627981007
4087100000.0 0.00011542564607225358 5.416289423010312e-05
4087200000.0 -0.00019167900609318167 0.00030799699015915394
4087300000.0 -0.00019706225430127233 0.00017567395116202533
4087400000.0 0.0003376997774466872 0.0001323148317169398
4087500000.0 6.259535439312458e-05 -3.191841096850112e-05
4087600000.0 0.0002483850112184882 0.00043263332918286324
4087700000.0 2.5224726414307952e-05 -6.391532951965928e-05
4087800000.0 8.706955122761428e-05 0.00016321547445841134
4087900000.0 -9.293634502682835e-05 6.871337245684117e-05
4088000000.0 0.00033142222673632205 0.00028157251654192805
4088100000.0 0.0002562594600021839 0.0003861109435092658
4088200000.0 0.00034116857568733394 0.00015578613965772092
4088300000.0 0.0002344060194445774 0.0003247632703278214
4088400000.0 0.00017353145813103765 -9.239259088644758e-05
4088500000.0 0.0001445313246222213 0.00041886349208652973
4088600000.0 0.00017480280075687915 0.000357575889211148
4088700000.0 0.00040041303145699203 -2.9978755264892243e-05
4088800000.0 8.115897071547806e-05 0.0003875611873809248
4088900000.0 1.7451689927838743e-05 1.3182272596168332e-05
4089000000.0 -7.450880366377532e-05 0.0001864822843344882
4089100000.0 -3.679761721286923e-05 0.0001622925337869674
4089200000.0 0.0003605652309488505 0.00016919347399380058
4089300000.0 1.309832077822648e-05 -7.52823834773153e-05
4089400000.0 -5.67007482459303e-05 0.0001892965956358239
4089500000.0 0.00026231424999423325 0.00025883119087666273
4089600000.0 3.63937251677271e-05 0.00011575102689675987
4089700000.0 0.00018509698566049337 -0.0002358634228585288
4089800000.0 9.162991045741364e-05 0.00024251658760476857
4089900000.0 -5.72480566916056e-05 -1.865040758275427e-05
4090000000.0 0.0004423196951393038 -4.465300662559457e-05
4090100000.0 0.0001413231948390603 0.00021245282550808042
4090200000.0 -6.593158468604088e-05 -7.571150490548462e-05
4090300000.0 -3.3893240470206365e-05 9.901854355121031e-05
4090400000.0 4.362553954706527e-05 -0.00012617609172593802
4090500000.0 0.00025217494112439454 -0.0002742130891419947
4090600000.0 0.00031730515183880925 0.00013482614303939044
4090700000.0 9.712691735330736e-07 -0.00011897084186784923
4090800000.0 8.800486102700233e-05 -0.0002964687009807676
4090900000.0 6.734264024998993e-05 0.00012537924339994788
4091000000.0 0.0002215754648204893 -0.00025778444251045585
4091100000.0 3.964539064327255e-05 -0.00026483286637812853
4091200000.0 -0.00013924049562774599 -5.537275228562066e-06
4091300000.0 5.9820285969180986e-05 0.00014354128506965935
4091400000.0 -0.00016422088083345443 -7.368843944277614e-05
4091500000.0 0.0002888247836381197 -0.00027547217905521393
4091600000.0 0.00035618487163446844 -0.0002769086859188974
4091700000.0 -4.786375575349666e-05 -0.00010309811477782205
4091800000.0 -1.6358073480660096e-05 7.20686512067914e-05
4091900000.0 0.00015449275088030845 0.00014599559654016048
4092000000.0 0.00028257357189431787 8.558662375435233e-05
4092100000.0 -6.65004990878515e-05 -0.00020852872694376856
4092200000.0 0.0002163422032026574 1.841308767325245e-05
4092300000.0 0.00031253276392817497 8.056399565248284e-06
4092400000.0 -1.491776311013382e-05 -9.681936035121907e-07
4092500000.0 -5.160088403499685e-05 -0.00021872372599318624
4092600000.0 -8.103796426439658e-05 3.7874757254030555e-05
4092700000.0 0.0002594275865703821 1.1023356819350738e-05
4092800000.0 -5.750259879278019e-05 -0.0003075928834732622
4092900000.0 4.377069853944704e-05 5.9161426179343835e-05
4093000000.0 0.0002310560957994312 -3.947579534724355e-05
4093100000.0 -6.514760752907023e-05 -0.00032502348767593503
4093200000.0 0.0001345715281786397 2.396166200924199e-05
4093300000.0 0.0001238618860952556 -0.0003819435660261661
4093400000.0 3.252913666074164e-05 1.590949614183046e-05
4093500000.0 -0.00018093950347974896 -0.00015224996604956686
4093600000.0 6.122299237176776e-05 -6.444455721066333e-06
4093700000.0 -0.00011316734162392095 -6.913476681802422e-05
4093800000.0 0.00016234631766565144 -0.0003067277430091053
4093900000.0 -0.0006017946870997548 -9.185136150335893e-05
4094000000.0 -3.842786099994555e-05 -4.0702030673855916e-05
4094100000.0 -0.00011627732601482421 -0.00041320439777337015
4094200000.0 4.358773730928078e-05 8.244650234701112e-05
4094300000.0 -0.00021541616297326982 -0.00032343578641302884
4094400000.0 3.899733928847127e-05 -0.0003556522133294493
4094500000.0 0.00020884920377284288 -0.00027027816395275295
4094600000.0 0.00016640149988234043 -0.00015784120478201658
4094700000.0 -3.621021460276097e-05 -0.00038352771662175655
4094800000.0 -0.0002896443475037813 -0.00023707261425442994
4094900000.0 -0.0002323348307982087 1.1993380212516058e-05
4095000000.0 -0.0003205258399248123 -0.0001452024298487231
4095100000.0 5.6103323004208505e-05 -0.0003453180834185332
4095200000.0 0.00012572313426062465 -0.00010583855328150094
4095300000.0 -0.00028293044306337833 9.235471225110814e-06
4095400000.0 -0.0002807199489325285 -0.0001275836693821475
4095500000.0 -0.00044443580554798245 7.671493949601427e-05
4095600000.0 -2.6551258997642435e-05 -0.00038632217911072075
4095700000.0 -0.00034084662911482155 -0.00019454931316431612
4095800000.0 8.67426279000938e-05 5.418470027507283e-05
4095900000.0 -3.0367778890649788e-05 -0.0003606948594097048
4096000000.0 -0.00025480834301561117 -0.0002587599738035351
4096100000.0 4.9779800974647515e-06 -4.053682005178416e-06
4096200000.0 -0.000398653675802052 -0.0002029944589594379
4096300000.0 -0.0003703467082232237 6.981945625739172e-05
4096400000.0 2.7032987418351695e-05 8.217275535571389e-06
4096500000.0 -0.0002777892514131963 0.00012672576121985912
4096600000.0 2.138533818651922e-05 -0.00023883885296527296
4096700000.0 -0.0003501160244923085 6.406124884961173e-05
4096800000.0 -0.0003050265950150788 6.185245729284361e-05
4096900000.0 -0.00044766857172362506 -0.00010939344792859629
4097000000.0 -0.0003055798006244004 0.00010555471817497164
4097100000.0 -0.0003511416434776038 -0.00018335224012844265
4097200000.0 0.00045647178194485605 -0.00010886772361118346
4097300000.0 -6.197476614033803e-05 -0.00022503299987874925
4097400000.0 -6.488570215879008e-05 -0.00021890201605856419
4097500000.0 -0.0003754614444915205 0.0001680699788266793
4097600000.0 -7.072273001540452e-05 0.00011146022734465078
4097700000.0 -8.577663538744673e-05 0.00022956448083277792
4097800000.0 6.295077764661983e-05 -2.6537043595453724e-05
4097900000.0 -0.0004221771960146725 9.37292497837916e-05
4098000000.0 2.294449950568378e-05 7.043023651931435e-05
4098100000.0 -6.113552808528766e-05 0.00024644186487421393
4098200000.0 -0.0002427496510790661 0.000285142392385751
4098300000.0 -0.00013863154163118452 -0.00013437055167742074
4098400000.0 -0.00033151006209664047 -0.00012907880591228604
4098500000.0 -0.0003118774911854416 0.0002997460833285004
4098600000.0 -0.0001682556903688237 0.00024115170526783913
4098700000.0 -5.991360012558289e-05 0.0002759243652690202
4098800000.0 -0.0003026869671884924 0.00025541160721331835
4098900000.0 -0.0002136590046575293 0.00022335122048389167
4099000000.0 -0.0004237819230183959 -2.8568358175107278e-05
4099100000.0 -0.00035560893593356013 7.374866254394874e-05
4099200000.0 2.0704144844785333e-05 2.4795916033326648e-05
4099300000.0 -0.00013086182298138738 -4.618410821422003e-05
4099400000.0 4.997666474082507e-05 0.0002274497674079612
4099500000.0 -0.00022528284171130508 -6.166897946968675e-05
4099600000.0 3.839954297291115e-05 0.00031653966289013624
4099700000.0 -0.0003735398349817842 0.00018362802802585065
4099800000.0 9.603874786989763e-05 0.00015174553846009076
4099900000.0 -0.00017883561667986214 0.0003780080587603152
4100000000.0 -0.0003108780656475574 0.0001953024766407907
